57
rdkit_etkdg_mmff_conf_4
C 7.94981714 0.06643614 0.11480340
N 6.69617976 0.23405471 0.81591031
C 6.50584150 1.07092682 1.88369521
C 5.19249295 0.95801158 2.27884287
C 4.55972393 0.01991500 1.41840267
C 3.25002005 -0.49299508 1.33514191
C 2.93542227 -1.42417737 0.33299803
C 1.58469894 -1.96314746 0.23670460
C 1.23528660 -3.32011808 0.54773605
C -0.11090758 -3.56214136 0.41513235
S -0.95942943 -2.17161445 -0.08313120
C 0.47605027 -1.21479967 -0.14506565
C 0.37360642 0.16433128 -0.56398414
C 1.31966259 0.99518061 -1.13679243
C 0.70295606 2.25245863 -1.35324193
C -0.60829252 2.15082408 -0.92068374
C -1.66415212 3.13995385 -0.92210240
S -1.30448142 4.80294826 -1.20372847
C -2.93099915 5.27464141 -1.01536037
C -3.74754040 4.20150830 -0.75133115
C -3.02715839 2.96275621 -0.70487447
C -3.64250273 1.66356073 -0.46289272
C -3.83144200 0.77068469 -1.52156083
C -4.42276376 -0.48001995 -1.31435789
C -4.82478086 -0.80935324 -0.01025546
C -4.65804604 0.07034483 1.06326115
C -5.16828701 -0.57637636 2.22221544
C -5.62370338 -1.81887531 1.84392825
N -5.40738890 -1.95240009 0.49780874
C -5.73180809 -3.12904696 -0.27682218
C -4.06283680 1.32690336 0.83293350
O -0.79011044 0.87900007 -0.44621456
C 3.91874025 -1.85704749 -0.56101510
C 5.22580408 -1.36240773 -0.49321082
C 5.52185328 -0.42164948 0.50554916
H 8.23304434 -0.98810550 0.15872090
H 8.72149977 0.67586812 0.59251254
H 7.81147470 0.38896269 -0.92021600
H 7.31109047 1.67722020 2.27822155
H 4.73214103 1.49347937 3.09904871
H 2.49297307 -0.16062677 2.04058497
H 1.94336087 -4.07368884 0.87162522
H -0.63942782 -4.48771296 0.59629030
H 2.34005259 0.73397317 -1.37894450
H 1.16673190 3.12774032 -1.78578942
H -3.21368322 6.31386461 -1.10878808
H -4.81763888 4.29006253 -0.60496486
H -3.50207705 1.03740077 -2.52375569
H -4.54853293 -1.17169598 -2.14074165
H -5.19138184 -0.17446624 3.22652888
H -6.07313213 -2.61218648 2.42589193
H -4.81059901 -3.51615294 -0.71985288
H -6.17600980 -3.88635347 0.37453918
H -6.44657521 -2.84569983 -1.05357138
H -3.91683585 2.01650892 1.65925342
H 3.67194154 -2.58461393 -1.33205011
H 5.98005839 -1.70204828 -1.19574289
