79
0 1 Before single point calculation
C -10.729268600 -0.426268913 -1.920456994
N -9.716890971 0.416559991 -1.286935720
C -9.821867881 1.834740032 -1.652093764
C -8.532474831 -0.138216299 -0.762263886
C -8.056867568 -1.349605746 -1.251129649
C -6.832051159 -1.859627600 -0.865886092
C -6.016907831 -1.194752894 0.033175983
C -4.677139854 -1.738010572 0.350043711
C -4.508778316 -3.067417445 0.732590854
C -3.254550922 -3.558473444 1.004266059
C -2.132801780 -2.754916667 0.906241951
F -0.918778593 -3.303604390 1.155157814
C -2.266410476 -1.406984256 0.529531925
C -1.096363977 -0.513872336 0.408605624
C -1.228935718 0.861638914 0.270040634
C -0.105148897 1.621815263 0.107185448
C 1.149792871 1.027561353 0.084067740
C 2.370539805 1.822813464 -0.109907070
C 3.592419834 1.174478700 -0.004903319
C 4.804482911 1.827030047 -0.204683769
C 6.088448313 1.104659118 -0.080394639
C 7.108161719 1.656803024 0.674904878
C 8.307719254 1.000800982 0.870494420
C 8.551835712 -0.254917470 0.327831297
N 9.741367113 -0.940999838 0.648418349
C 10.946072712 -0.215220291 1.046775629
C 9.748327421 -2.355347691 1.042558541
C 7.551728956 -0.828304112 -0.532107472
C 7.788114486 -2.015947885 -1.249999204
C 6.843980881 -2.543333038 -2.082588218
C 5.623270409 -1.894255411 -2.256849389
C 5.371486610 -0.723672518 -1.605106637
C 6.318414028 -0.154013630 -0.726498124
C 4.768747744 3.190544802 -0.496962003
C 3.568171800 3.853929239 -0.597290276
C 2.366413178 3.194778670 -0.412498844
F 1.211898178 3.893568729 -0.531247716
N 1.301941740 -0.293985555 0.242347709
C 0.202638308 -1.002397104 0.403803001
C -3.543594221 -0.937107122 0.243662466
C -6.498225858 0.014768522 0.631387623
C -5.770552689 0.681184270 1.640676275
C -6.264338409 1.796485210 2.249551966
C -7.518784574 2.289322416 1.894614226
C -8.252132675 1.667019668 0.925973506
C -7.761188711 0.534661443 0.248608271
H -10.850287729 -1.352102691 -1.361388737
H -11.688677840 0.087324297 -1.939471802
H -10.439044138 -0.661703154 -2.942608300
H -8.870179980 2.341092231 -1.503184577
H -10.588799771 2.324493118 -1.055198828
H -10.088878867 1.930575986 -2.702905370
H -8.633479036 -1.873048474 -1.992731382
H -6.476336617 -2.777344635 -1.301852667
H -5.373118690 -3.702877128 0.818706752
H -3.119934666 -4.584583703 1.297286100
H -2.196273462 1.329946357 0.301754459
H -0.188899433 2.685872751 -0.010191710
H 3.594223246 0.130385653 0.249723513
H 6.940164043 2.608117853 1.149689541
H 9.054258733 1.447070120 1.503010721
H 11.827902171 -0.832062398 0.883849940
H 11.051147526 0.691488284 0.453988869
H 10.895723522 0.051625683 2.100677727
H 10.341100208 -2.941334784 0.342801391
H 10.180295490 -2.463148441 2.035749715
H 8.734495353 -2.749441581 1.075262515
H 8.748528005 -2.490915993 -1.171498666
H 7.045840921 -3.455509886 -2.619658227
H 4.884835308 -2.312072106 -2.921485390
H 4.443879701 -0.210023101 -1.781964424
H 5.693648148 3.717182550 -0.656374735
H 3.540819080 4.904216880 -0.827486874
H 0.348170213 -2.056606037 0.554276611
H -3.674938243 0.070494821 -0.103093824
H -4.821526380 0.282283026 1.951189692
H -5.694205800 2.288717325 3.020363703
H -7.914486067 3.155844699 2.398579623
H -9.242668502 2.019273612 0.704389166
