58
0 1 Before single point calculation
C 10.377981968 -2.889160986 0.001152860
N 9.893437128 -1.532709364 -0.049566198
C 10.847930954 -0.461947526 -0.187993816
C 8.549401219 -1.271079723 -0.022537653
C 7.612001834 -2.283415339 0.237000098
C 6.261980120 -2.020751769 0.262910791
C 5.763998130 -0.734296866 0.035592773
C 4.349010175 -0.454612443 0.056313250
C 3.293266122 -1.330587531 0.117926934
C 2.037978936 -0.708116479 0.113725490
C 2.113715688 0.658203759 0.052359971
C 1.021341196 1.587532137 0.033016768
C 1.123440519 2.956104747 0.011195713
S -0.426543891 3.691037489 -0.001560110
C -1.131179396 2.063081995 0.023090710
C -2.537734815 1.880377691 0.021628657
C -3.526436698 2.835441659 0.027991794
C -4.813215594 2.292930502 0.023094801
C -4.834878241 0.915638707 0.010337589
C -5.973961538 0.032742582 -0.002542051
C -5.812208054 -1.351196695 -0.120400333
C -6.886997826 -2.206938246 -0.140272547
C -8.202486985 -1.724508069 -0.039111991
N -9.276479894 -2.571070815 -0.063568368
C -10.621255639 -2.053717221 -0.093419290
C -9.086166538 -3.999321054 -0.012386949
C -8.364776925 -0.335040624 0.084683618
C -7.283233757 0.514136811 0.100746204
S -3.212189786 0.280977306 0.007535759
N -0.254858740 1.119678637 0.039262341
S 3.766010686 1.188421521 -0.005308992
C 6.697330943 0.274940184 -0.214452919
C 8.048108137 0.020762189 -0.246942395
H 10.245759328 -3.327749473 0.996877545
H 11.438531673 -2.904935985 -0.239896310
H 9.857362828 -3.516351770 -0.727493508
H 11.849079838 -0.842546703 0.002183301
H 10.646221304 0.330224660 0.537211757
H 10.829667210 -0.027356924 -1.194491604
H 7.940276855 -3.290760219 0.435243709
H 5.579908779 -2.829316315 0.476776062
H 3.413794971 -2.398361104 0.154283908
H 1.096918349 -1.225955937 0.153129256
H 2.014006700 3.550678928 0.003557468
H -3.314318127 3.890572799 0.035527171
H -5.699991758 2.900316808 0.021958082
H -4.813359928 -1.754702544 -0.204796640
H -6.700258491 -3.262685076 -0.247740299
H -10.903239969 -1.597672198 0.862836352
H -11.316286214 -2.863476177 -0.303987308
H -10.728933504 -1.305012991 -0.882029306
H -8.413510690 -4.272860609 0.804708418
H -8.671047138 -4.384276006 -0.950584140
H -10.042639651 -4.486630688 0.162872069
H -9.349915385 0.090986138 0.182402090
H -7.459025444 1.573666907 0.204365122
H 6.344912353 1.280395039 -0.396758162
H 8.717849558 0.837095652 -0.462172669
58
step=1 E=-2401.196205947759 Eh
C 10.3779826161 -2.8891608096 0.0011528602
N 9.8934369150 -1.5327093923 -0.0495661984
C 10.8479312550 -0.4619475217 -0.1879938026
C 8.5494012757 -1.2710796601 -0.0225376521
C 7.6120017621 -2.2834152123 0.2370000892
C 6.2619799643 -2.0207517589 0.2629107803
C 5.7639979934 -0.7342968814 0.0355927714
C 4.3490099614 -0.4546124324 0.0563132502
C 3.2932659707 -1.3305874790 0.1179269298
C 2.0379789007 -0.7081164686 0.1137254903
C 2.1137156692 0.6582037385 0.0523599683
C 1.0213411800 1.5875320402 0.0330167685
C 1.1234404988 2.9561046637 0.0111957123
S -0.4265438994 3.6910375315 -0.0015601097
C -1.1311792816 2.0630820304 0.0230907111
C -2.5377348112 1.8803776610 0.0216286580
C -3.5264364626 2.8354416814 0.0279917917
C -4.8132152018 2.2929302631 0.0230948016
C -4.8348777800 0.9156386883 0.0103375879
C -5.9739612917 0.0327425806 -0.0025420509
C -5.8122077836 -1.3511966294 -0.1204003305
C -6.8869976452 -2.2069383102 -0.1402725488
C -8.2024869840 -1.7245079896 -0.0391119904
N -9.2764795449 -2.5710707001 -0.0635683703
C -10.6212560376 -2.0537171125 -0.0934192885
C -9.0861665332 -3.9993208919 -0.0123869484
C -8.3647763845 -0.3350406187 0.0846836205
C -7.2832338354 0.5141367828 0.1007462021
S -3.2121897724 0.2809773084 0.0075357587
N -0.2548587193 1.1196785886 0.0392623402
S 3.7660105015 1.1884214494 -0.0053089915
C 6.6973310341 0.2749401584 -0.2144529277
C 8.0481080154 0.0207621885 -0.2469423923
H 10.2457585934 -3.3277494438 0.9968775610
H 11.4385320650 -2.9049358098 -0.2398963184
H 9.8573626241 -3.5163517737 -0.7274935093
H 11.8490791279 -0.8425466893 0.0021833005
H 10.6462213431 0.3302246510 0.5372117826
H 10.8296671851 -0.0273569219 -1.1944915989
H 7.9402765326 -3.2907599303 0.4352437103
H 5.5799088730 -2.8293163388 0.4767760779
H 3.4137948807 -2.3983609218 0.1542839178
H 1.0969182905 -1.2259560208 0.1531292425
H 2.0140067233 3.5506790443 0.0035574679
H -3.3143182330 3.8905726837 0.0355271693
H -5.6999918824 2.9003166537 0.0219580814
H -4.8133598101 -1.7547024920 -0.2047966396
H -6.7002582837 -3.2626849626 -0.2477403016
H -10.9032402644 -1.5976720810 0.8628363385
H -11.3162862766 -2.8634760136 -0.3039872882
H -10.7289330377 -1.3050129106 -0.8820293101
H -8.4135106317 -4.2728606305 0.8047084179
H -8.6710473634 -4.3842757330 -0.9505841014
H -10.0426393768 -4.4866304539 0.1628720617
H -9.3499159642 0.0909861317 0.1824020875
H -7.4590253036 1.5736668723 0.2043651220
H 6.3449122146 1.2803950522 -0.3967581811
H 8.7178494734 0.8370955978 -0.4621726708
58
step=2 E=-2401.204197115547 Eh
C 10.4105322890 -2.9435376833 0.0105050312
N 9.9814361091 -1.5647669327 -0.0436136824
C 10.9438211170 -0.4956672763 -0.1783624231
C 8.6380712082 -1.2716138400 -0.0213503297
C 7.6735109691 -2.2704149919 0.2327239160
C 6.3213160773 -1.9689698818 0.2521952526
C 5.8443792383 -0.6702688062 0.0260124466
C 4.4074191012 -0.3850348004 0.0467717495
C 3.3562869010 -1.2691084142 0.1034531138
C 2.0828900391 -0.6460375339 0.1015925389
C 2.1531178798 0.7213616026 0.0465216721
C 1.0396023809 1.6594801253 0.0300849630
C 1.1273938110 3.0287170918 0.0144906280
S -0.4390521930 3.7297557942 0.0032772854
C -1.1338753595 2.1122469795 0.0208980653
C -2.5633577679 1.9020461678 0.0188157817
C -3.5818791221 2.8258801757 0.0293894239
C -4.8676891490 2.2420106351 0.0224780680
C -4.8404629329 0.8642357928 0.0042345865
C -5.9813581423 -0.0532207041 -0.0108449719
C -5.8725500826 -1.4479241174 -0.1334715698
C -6.9744576896 -2.2868433667 -0.1495732577
C -8.2833264647 -1.7700240892 -0.0384416760
N -9.3872868523 -2.5869487711 -0.0573195973
C -10.7078680536 -2.0001597668 -0.0732686054
C -9.2418496401 -4.0245650318 -0.0142589515
C -8.4070204063 -0.3701948928 0.0905614836
C -7.2876572893 0.4452217412 0.1008715744
S -3.2001890208 0.2921447634 -0.0012111784
N -0.2426409527 1.1741905219 0.0334300692
S 3.8037321586 1.2463230188 -0.0059265874
C 6.8069708517 0.3203764081 -0.2183593814
C 8.1635225251 0.0381950196 -0.2459309096
H 10.2584604754 -3.3886978174 1.0085129545
H 11.4774781938 -3.0017124245 -0.2273559805
H 9.8689316745 -3.5585203687 -0.7242734577
H 11.9485317239 -0.8853442079 0.0144215946
H 10.7502751289 0.3046598434 0.5512331484
H 10.9367302945 -0.0490663167 -1.1877425227
H 7.9808161117 -3.2948916870 0.4314815513
H 5.6143325358 -2.7708346589 0.4632034165
H 3.4890080305 -2.3479719984 0.1346183472
H 1.1317806783 -1.1710289449 0.1379037113
H 2.0216219869 3.6436297507 0.0103570121
H -3.3998532716 3.8991740178 0.0414068014
H -5.7858173219 2.8241295422 0.0239893485
H -4.8809803975 -1.8923560050 -0.2273943515
H -6.8126975720 -3.3565105616 -0.2621147158
H -10.9690324211 -1.5286629943 0.8897776566
H -11.4484030330 -2.7785966984 -0.2827649658
H -10.7923140107 -1.2377993864 -0.8618240655
H -8.5692027648 -4.3322719915 0.8005360631
H -8.8445626435 -4.4311561178 -0.9596024039
H -10.2189120005 -4.4829901201 0.1682114473
H -9.3871037007 0.0895926182 0.1968277778
H -7.4390879538 1.5186739930 0.2099817370
H 6.4810295954 1.3447309472 -0.4033670068
H 8.8586213200 0.8475358862 -0.4581413166
58
step=3 E=-2401.203871266429 Eh
C 10.4138280541 -2.9814513480 0.0175485352
N 9.9408949473 -1.6178801360 -0.0352362297
C 10.9210610542 -0.5663043306 -0.1711188817
C 8.5896638066 -1.3325613777 -0.0135911767
C 7.6142018156 -2.3279752641 0.2341399356
C 6.2574637237 -2.0242845012 0.2504695485
C 5.7796511405 -0.7240927997 0.0245023605
C 4.3325092582 -0.4210696749 0.0378846927
C 3.2675736966 -1.2899004639 0.0836929257
C 1.9973449929 -0.6389817386 0.0799052724
C 2.1040720312 0.7256557511 0.0311595612
C 0.9969428766 1.6920585364 0.0141507525
C 1.0998216081 3.0589185159 0.0036275656
S -0.4573578633 3.7772020546 -0.0094546738
C -1.1621842897 2.1839939498 0.0040422089
C -2.6132234477 2.0081725300 0.0050604174
C -3.5890213687 2.9739046440 0.0227006773
C -4.8953801460 2.4131079642 0.0204082562
C -4.9106979372 1.0343390346 0.0004586152
C -6.0645369398 0.1121399877 -0.0063822480
C -5.8365056615 -1.2656424343 -0.1461970144
C -6.8934161563 -2.1681613785 -0.1600232864
C -8.2323709147 -1.7310489488 -0.0310751702
N -9.2651613523 -2.6429483648 -0.0482122471
C -10.6492525142 -2.2246443959 -0.0368717185
C -8.9561860629 -4.0544885610 -0.0316176218
C -8.4515979837 -0.3399699122 0.1139789315
C -7.3910718122 0.5575250417 0.1238165352
S -3.2943973469 0.4229799181 -0.0157121549
N -0.2951922670 1.2181773300 0.0135899308
S 3.7602278306 1.2141224522 -0.0086935978
C 6.7488231126 0.2618634848 -0.2151522979
C 8.1109127133 -0.0208694615 -0.2371924460
H 10.2764949726 -3.4455509461 1.0145306605
H 11.4884022407 -3.0016574113 -0.2179415054
H 9.8980217310 -3.6185373604 -0.7241106575
H 11.9233486335 -0.9775974500 0.0208357425
H 10.7487731476 0.2422796548 0.5619916620
H 10.9274777413 -0.1102630836 -1.1817662517
H 7.9175789836 -3.3596274323 0.4333214982
H 5.5473406567 -2.8329329998 0.4602787676
H 3.3852139807 -2.3783160970 0.1087262452
H 1.0263142965 -1.1436349927 0.1086797512
H 2.0095625446 3.6665764252 0.0042001594
H -3.3744920017 4.0494772797 0.0368713146
H -5.8039228453 3.0226311817 0.0273303879
H -4.8121362688 -1.6477594179 -0.2551106032
H -6.6694237943 -3.2317850008 -0.2845966317
H -10.9617726896 -1.7956851784 0.9364847026
H -11.2925143491 -3.0920575489 -0.2457810877
H -10.8497384694 -1.4685455820 -0.8171897999
H -8.2414313576 -4.3038035308 0.7742231270
H -8.5230346953 -4.4093569918 -0.9879630527
H -9.8776910786 -4.6252389331 0.1537456307
H -9.4651078175 0.0518529648 0.2351385898
H -7.6082945558 1.6249929674 0.2479406405
H 6.4313717900 1.2956981168 -0.4044324898
H 8.8089531993 0.7946169532 -0.4466166448
58
step=4 E=-2401.205557326678 Eh
C 10.3950468046 -2.9704916990 0.0206171150
N 9.9490624400 -1.5983908656 -0.0339363011
C 10.9258062868 -0.5440326747 -0.1678157347
C 8.6021174471 -1.3036338849 -0.0147155828
C 7.6323455956 -2.3021068241 0.2312907163
C 6.2772801601 -1.9996461644 0.2472807705
C 5.8019534600 -0.6993151790 0.0224322732
C 4.3562224483 -0.4024196164 0.0360628352
C 3.2987052529 -1.2792157094 0.0801908668
C 2.0269843307 -0.6356982294 0.0772685327
C 2.1256868913 0.7293902482 0.0307962596
C 1.0134798893 1.6864959250 0.0149211858
C 1.1081502251 3.0533438018 0.0064322006
S -0.4541615143 3.7602062186 -0.0065243685
C -1.1465225798 2.1625659814 0.0043724276
C -2.5933975540 1.9697837086 0.0041333887
C -3.5846723352 2.9194074708 0.0222047866
C -4.8840389220 2.3459116980 0.0179433883
C -4.8741887781 0.9682417359 -0.0038537578
C -6.0240293511 0.0427748099 -0.0127681387
C -5.8367925691 -1.3402603012 -0.1522665700
C -6.9089980886 -2.2228220054 -0.1646568739
C -8.2389930917 -1.7622369032 -0.0339212993
N -9.3095512899 -2.6290289030 -0.0459202245
C -10.6600681875 -2.1171531831 -0.0294467744
C -9.0838578160 -4.0556774646 -0.0289601071
C -8.4208432796 -0.3677367910 0.1106536631
C -7.3418278213 0.5054656317 0.1186576958
S -3.2505154132 0.3754854084 -0.0190550995
N -0.2736536061 1.2029760447 0.0131291215
S 3.7776086129 1.2301762554 -0.0076611402
C 6.7665264137 0.2898537644 -0.2157357012
C 8.1269061946 0.0078809746 -0.2371378584
H 10.2458682414 -3.4309562407 1.0168583064
H 11.4685903237 -3.0126378382 -0.2117782462
H 9.8691265742 -3.5977170685 -0.7215314129
H 11.9285109123 -0.9516022123 0.0239872673
H 10.7509831971 0.2629065624 0.5656089882
H 10.9313074362 -0.0868836203 -1.1772480876
H 7.9381871196 -3.3323548760 0.4288088002
H 5.5677115014 -2.8076397309 0.4553892878
H 3.4231560121 -2.3654438493 0.1031970130
H 1.0601540886 -1.1450821833 0.1048356278
H 2.0124584322 3.6658224683 0.0082931131
H -3.3855126062 3.9961987749 0.0379249980
H -5.8003914589 2.9415126987 0.0246931522
H -4.8240415912 -1.7468229614 -0.2631242557
H -6.7040859220 -3.2885818394 -0.2896375328
H -10.9378322475 -1.6664340477 0.9438374694
H -11.3619576828 -2.9377607376 -0.2340628083
H -10.8109481499 -1.3505524038 -0.8098835587
H -8.3828504838 -4.3459985825 0.7740665660
H -8.6759104638 -4.4358983116 -0.9857774064
H -10.0358209841 -4.5712122420 0.1600302283
H -9.4240023636 0.0472755166 0.2333199441
H -7.5388896329 1.5755137076 0.2430768552
H 6.4479014607 1.3223768141 -0.4038606892
H 8.8251190006 0.8221588628 -0.4447875584
58
step=5 E=-2401.204892613267 Eh
C 10.4031820006 -2.9471276783 0.0386032738
N 9.9585164050 -1.5769303102 -0.0331801367
C 10.9111352294 -0.5052048521 -0.1861662276
C 8.6111615628 -1.2939970063 -0.0106847709
C 7.6453252742 -2.2922831648 0.2401228279
C 6.2920445444 -1.9939371993 0.2566037960
C 5.8171600881 -0.6964646598 0.0246367589
C 4.3744278921 -0.4075446993 0.0364784954
C 3.3222901438 -1.2894578328 0.0755950704
C 2.0507948142 -0.6535368189 0.0735571175
C 2.1388278053 0.7122781424 0.0316142622
C 1.0291892002 1.6652968015 0.0155697237
C 1.1321236859 3.0309970399 0.0069431653
S -0.4306560313 3.7389844078 -0.0074312542
C -1.1292985402 2.1446356880 0.0023625017
C -2.5698368246 1.9368117271 0.0000867849
C -3.5818498334 2.8640806549 0.0175472878
C -4.8733107286 2.2797709426 0.0104595128
C -4.8343235872 0.9042269260 -0.0120767617
C -5.9803039728 -0.0198971178 -0.0211998231
C -5.8704762175 -1.4086021984 -0.1721505628
C -6.9722663351 -2.2506319709 -0.1783838697
C -8.2729151943 -1.7262048436 -0.0286902591
N -9.3544839899 -2.5768565363 -0.0381708214
C -10.7031878196 -2.0685662712 0.0083682622
C -9.1352975365 -4.0024391183 -0.0534023229
C -8.4064974927 -0.3296627493 0.1290289785
C -7.2802864027 0.4778982931 0.1282135017
S -3.2015631403 0.3322508907 -0.0216021959
N -0.2574088886 1.1847835139 0.0130843267
S 3.7883180977 1.2228529461 0.0001565912
C 6.7754766051 0.2946370174 -0.2200942728
C 8.1335057959 0.0129566590 -0.2383881147
H 10.2485889226 -3.3937368771 1.0382785819
H 11.4755246742 -2.9943499643 -0.1880191624
H 9.8805941166 -3.5819933809 -0.6968308934
H 11.9232541154 -0.8883377238 -0.0062450411
H 10.7294622413 0.3016667767 0.5431646477
H 10.8921379932 -0.0556782017 -1.1968714683
H 7.9531089357 -3.3182453675 0.4414029318
H 5.5859229222 -2.7996230411 0.4696361082
H 3.4518398435 -2.3716104194 0.0930246275
H 1.0901635693 -1.1671200835 0.0969845700
H 2.0355754342 3.6374116095 0.0094735171
H -3.4021188094 3.9404294347 0.0339711699
H -5.7967908647 2.8585415422 0.0145309442
H -4.8826263254 -1.8591365940 -0.3002625696
H -6.8168723916 -3.3214709345 -0.3123954942
H -10.9608626407 -1.6274934001 0.9894338914
H -11.4073468997 -2.8864576801 -0.1892587452
H -10.8694408488 -1.2969787861 -0.7612238161
H -8.4305312188 -4.3116086962 0.7368248206
H -8.7355956208 -4.3606390329 -1.0199922527
H -10.0852979113 -4.5194347970 0.1304210374
H -9.3852767293 0.1293205241 0.2665924814
H -7.4272196342 1.5515147300 0.2633922627
H 6.4559959600 1.3221860930 -0.4164087259
H 8.8297127490 0.8247509176 -0.4488146566
58
step=6 E=-2401.205725611263 Eh
C 10.3835354763 -2.9641051079 0.0385694459
N 9.9437192890 -1.5924905332 -0.0339442246
C 10.9070207265 -0.5306011522 -0.1875656006
C 8.5974198177 -1.3009961482 -0.0117355322
C 7.6284854024 -2.2964311350 0.2400398189
C 6.2759195187 -1.9929392843 0.2568977074
C 5.8046869720 -0.6939746203 0.0245618381
C 4.3624471944 -0.3993758564 0.0367022265
C 3.3067885335 -1.2773510484 0.0763000726
C 2.0370812260 -0.6369263181 0.0744178944
C 2.1307323318 0.7285308785 0.0321064684
C 1.0230874949 1.6847357186 0.0160587919
C 1.1257584875 3.0506922148 0.0068917408
S -0.4362979049 3.7605653430 -0.0074031911
C -1.1352057626 2.1670805987 0.0031626235
C -2.5765642769 1.9614362247 0.0011934037
C -3.5857186314 2.8914888266 0.0184006232
C -4.8772403441 2.3063644572 0.0116306147
C -4.8431953392 0.9301318348 -0.0102911220
C -5.9839657655 -0.0008170986 -0.0190947764
C -5.8437136236 -1.3862803439 -0.1712964311
C -6.9314457933 -2.2469204856 -0.1791639146
C -8.2448515589 -1.7517360841 -0.0307930843
N -9.3253331037 -2.6048473604 -0.0393159620
C -10.6676663736 -2.0798517277 0.0083988814
C -9.1161281295 -4.0322699100 -0.0542193214
C -8.3988789004 -0.3571310049 0.1274943458
C -7.2920322178 0.4772505145 0.1296014372
S -3.2110926654 0.3578110321 -0.0197147435
N -0.2642138358 1.2056394909 0.0140702811
S 3.7821370505 1.2330091487 0.0001556340
C 6.7667529557 0.2935577415 -0.2210372980
C 8.1244837720 0.0081039816 -0.2399761157
H 10.2272217974 -3.4098209871 1.0385348152
H 11.4559937350 -3.0152044042 -0.1878840275
H 9.8588241300 -3.5976573543 -0.6967394141
H 11.9153752691 -0.9239587414 -0.0070317383
H 10.7334741048 0.2788540607 0.5410906390
H 10.8928664925 -0.0816811123 -1.1987701222
H 7.9329644066 -3.3235822954 0.4416799804
H 5.5670690538 -2.7963354723 0.4706729951
H 3.4325097213 -2.3602476317 0.0939265803
H 1.0742010056 -1.1469877100 0.0981771455
H 2.0297861817 3.6568504756 0.0089573932
H -3.4046279309 3.9680242355 0.0343246851
H -5.7997215716 2.8868688385 0.0154720330
H -4.8466013539 -1.8175980953 -0.2986623362
H -6.7541831254 -3.3140175578 -0.3140104020
H -10.9187584607 -1.6347037143 0.9895465626
H -11.3824213405 -2.8890008136 -0.1877884973
H -10.8253118659 -1.3065601394 -0.7617077176
H -8.4131878598 -4.3467483273 0.7357129486
H -8.7195681220 -4.3939263508 -1.0209952472
H -10.0698708920 -4.5424122605 0.1303378049
H -9.3868962314 0.0825583811 0.2641955682
H -7.4604958061 1.5478984819 0.2656048071
H 6.4505266724 1.3222660564 -0.4177706998
H 8.8231908647 0.8177754803 -0.4511424396
58
step=7 E=-2401.205940176428 Eh
C 10.3456890893 -2.9948237581 0.0400846544
N 9.9221886739 -1.6179922711 -0.0351681014
C 10.8989573023 -0.5685289100 -0.1904756429
C 8.5789506627 -1.3107407549 -0.0138030896
C 7.6049748465 -2.3011582291 0.2398033153
C 6.2539799071 -1.9882546802 0.2571346637
C 5.7903938689 -0.6863154441 0.0237639523
C 4.3491170120 -0.3825894024 0.0364497168
C 3.2894680098 -1.2561709313 0.0766045375
C 2.0221623392 -0.6096032608 0.0751493372
C 2.1235991301 0.7553532235 0.0326650180
C 1.0166018953 1.7137502267 0.0169096312
C 1.1153684851 3.0802870644 0.0070453044
S -0.4473958795 3.7887631919 -0.0069755270
C -1.1419264872 2.1947092128 0.0047030439
C -2.5842358653 1.9895231559 0.0031558798
C -3.5913127959 2.9220261393 0.0199147387
C -4.8828870964 2.3351626054 0.0135499826
C -4.8502886283 0.9585104238 -0.0074897056
C -5.9880196769 0.0230698485 -0.0157924680
C -5.8185104548 -1.3592302497 -0.1699962209
C -6.8922325875 -2.2378627591 -0.1795579702
C -8.2153335178 -1.7682188965 -0.0317058414
N -9.2869824507 -2.6329213720 -0.0407846467
C -10.6340112018 -2.1191811906 0.0078416087
C -9.0638584507 -4.0583566435 -0.0571909401
C -8.3901380857 -0.3757090381 0.1278252332
C -7.3028388707 0.4849233594 0.1330133818
S -3.2188820844 0.3860224549 -0.0166468959
N -0.2702996684 1.2330606118 0.0157389010
S 3.7770965695 1.2525881759 0.0000120147
C 6.7588914419 0.2949775108 -0.2235139328
C 8.1156653676 0.0022022003 -0.2433505660
H 10.1831752611 -3.4374434910 1.0408379556
H 11.4180627148 -3.0590749224 -0.1852439325
H 9.8142324446 -3.6239562453 -0.6948333571
H 11.9025374598 -0.9747978686 -0.0096455367
H 10.7364170656 0.2446285298 0.5372035196
H 10.8904493044 -0.1205590770 -1.2025530090
H 7.9037231098 -3.3304588869 0.4422572056
H 5.5397584379 -2.7872617201 0.4723114362
H 3.4105396980 -2.3402836133 0.0941814791
H 1.0560056962 -1.1149207279 0.0992715375
H 2.0188051041 3.6886705851 0.0083532168
H -3.4095804048 3.9992354645 0.0350718972
H -5.8057977006 2.9161155427 0.0169202226
H -4.8127478519 -1.7720797263 -0.2971742340
H -6.6953755085 -3.3017372713 -0.3157227345
H -10.8883606075 -1.6760614070 0.9894648629
H -11.3424546869 -2.9344159707 -0.1880048011
H -10.7991639617 -1.3467058682 -0.7621724249
H -8.3582500238 -4.3677013268 0.7329704043
H -8.6631766190 -4.4155922202 -1.0243297884
H -10.0131732815 -4.5778042409 0.1262746203
H -9.3870431555 0.0446568431 0.2640516618
H -7.4909985382 1.5528563039 0.2703930884
H 6.4486220505 1.3258814599 -0.4212432277
H 8.8195165282 0.8076767660 -0.4558754517
58
step=8 E=-2401.205962137396 Eh
C 10.3946153476 -2.9681701014 0.0459058879
N 9.9364124413 -1.6035825861 -0.0418878800
C 10.8983003452 -0.5440880533 -0.2170790569
C 8.5875537919 -1.3183832560 -0.0141534750
C 7.6165993402 -2.3101551810 0.2490953521
C 6.2631765007 -2.0066710437 0.2705588969
C 5.7898033342 -0.7094860839 0.0301506990
C 4.3474514437 -0.4080707924 0.0439748516
C 3.2861023988 -1.2799152794 0.0799231057
C 2.0192693349 -0.6317419662 0.0809732409
C 2.1226315686 0.7332397674 0.0441534998
C 1.0168829116 1.6938165445 0.0288958065
C 1.1200570089 3.0599444940 0.0160353833
S -0.4416659297 3.7711905929 -0.0027314333
C -1.1391609651 2.1807027602 0.0130521468
C -2.5825702584 1.9785922731 0.0074874423
C -3.5859143383 2.9151437629 0.0135564546
C -4.8781612250 2.3284907438 0.0035255623
C -4.8493266381 0.9517372583 -0.0079359522
C -5.9890100017 0.0177572993 -0.0160764701
C -5.8219726929 -1.3642074448 -0.1768507999
C -6.8997606432 -2.2385052993 -0.1854358096
C -8.2227613528 -1.7703997179 -0.0321852013
N -9.3036490099 -2.6239078900 -0.0401838548
C -10.6401005197 -2.0849548251 0.0205069660
C -9.1021516160 -4.0523319533 -0.0688606641
C -8.3910718570 -0.3774727630 0.1313126823
C -7.3025349073 0.4817835403 0.1383748858
S -3.2196830723 0.3760928671 -0.0039477582
N -0.2711211188 1.2153245339 0.0283415280
S 3.7767977151 1.2273115035 0.0152501757
C 6.7529278653 0.2741251876 -0.2273210195
C 8.1115599127 -0.0111321581 -0.2495750999
H 10.2401749186 -3.4073267748 1.0496332053
H 11.4694710770 -3.0061817312 -0.1749239846
H 9.8829904732 -3.6175474986 -0.6857952208
H 11.9095832200 -0.9381543930 -0.0511068167
H 10.7387445994 0.2707816768 0.5097790913
H 10.8683901730 -0.1002740743 -1.2307907953
H 7.9206692711 -3.3367412899 0.4571256034
H 5.5553206568 -2.8091884984 0.4948035278
H 3.4058440156 -2.3645127561 0.0911215492
H 1.0519003458 -1.1354944736 0.1015752869
H 2.0253311044 3.6662075898 0.0158873193
H -3.4024858905 3.9924809582 0.0218109151
H -5.8004099338 2.9110260135 -0.0038978979
H -4.8179178647 -1.7799752262 -0.3101337157
H -6.7044032066 -3.3021383385 -0.3269806462
H -10.8757463898 -1.6330101333 1.0029839127
H -11.3661780414 -2.8873121475 -0.1646099589
H -10.7995236943 -1.3118590239 -0.7505670295
H -8.4067435347 -4.3817527067 0.7226354491
H -8.7011418931 -4.4074546199 -1.0368856653
H -10.0607716481 -4.5586543211 0.1037381053
H -9.3870683529 0.0450315054 0.2696932094
H -7.4883636332 1.5496658598 0.2814532017
H 6.4371374926 1.3022451477 -0.4322541396
H 8.8087284233 0.7984954473 -0.4692068323
58
step=9 E=-2401.206063502888 Eh
C 10.3656502483 -2.9855241266 0.0495128460
N 9.9268406263 -1.6146376507 -0.0408772097
C 10.8975237726 -0.5629229537 -0.2153494826
C 8.5812980749 -1.3160201171 -0.0157492481
C 7.6097816172 -2.3067548774 0.2473960825
C 6.2576086848 -1.9982128178 0.2681353262
C 5.7888189631 -0.6994292104 0.0274038052
C 4.3468259235 -0.3969966939 0.0414049570
C 3.2859606806 -1.2693217642 0.0767708700
C 2.0191941415 -0.6211272132 0.0783593606
C 2.1221481422 0.7439823194 0.0425690254
C 1.0164180081 1.7045220953 0.0280736877
C 1.1193017266 3.0706172035 0.0158289106
S -0.4425602452 3.7816526546 -0.0021138203
C -1.1399321436 2.1910658491 0.0130553621
C -2.5832416204 1.9881729929 0.0078887155
C -3.5881478756 2.9229187382 0.0145647782
C -4.8798894800 2.3352452220 0.0048350867
C -4.8494767798 0.9585594909 -0.0070798683
C -5.9873935729 0.0223861351 -0.0150832327
C -5.8170867609 -1.3589193386 -0.1774041221
C -6.8922361680 -2.2364210639 -0.1860154840
C -8.2156864241 -1.7704355933 -0.0310184769
N -9.2911617456 -2.6307650939 -0.0395632095
C -10.6328622728 -2.1052182868 0.0227301857
C -9.0776455204 -4.0573343681 -0.0706430467
C -8.3885582831 -0.3781363956 0.1341161692
C -7.3017906607 0.4832010566 0.1410004502
S -3.2188867459 0.3851732517 -0.0038964862
N -0.2715761536 1.2259667106 0.0275792393
S 3.7761795859 1.2384238812 0.0139007514
C 6.7540271028 0.2823320617 -0.2299798759
C 8.1118155135 -0.0064116556 -0.2518285727
H 10.2023793693 -3.4212654565 1.0533107086
H 11.4403350309 -3.0390719025 -0.1684283702
H 9.8467570060 -3.6285988901 -0.6827362891
H 11.9052914164 -0.9651777057 -0.0482518212
H 10.7440440252 0.2536070060 0.5109829310
H 10.8722417423 -0.1192592034 -1.2292145742
H 7.9117393857 -3.3341148048 0.4554360452
H 5.5467950999 -2.7981647286 0.4921371474
H 3.4060494344 -2.3538823378 0.0871279916
H 1.0519238344 -1.1249871700 0.0986310319
H 2.0244176302 3.6770175899 0.0157218732
H -3.4060976086 4.0004084846 0.0230693370
H -5.8026629391 2.9168710621 -0.0021336189
H -4.8120614288 -1.7717467930 -0.3119808846
H -6.6945996124 -3.2995276078 -0.3287729949
H -10.8721179111 -1.6567513549 1.0058686777
H -11.3509779562 -2.9146338436 -0.1625812566
H -10.8008012286 -1.3329387509 -0.7473286846
H -8.3794470126 -4.3823284510 0.7202613894
H -8.6737077318 -4.4073051916 -1.0392787092
H -10.0319590800 -4.5719887489 0.1010222270
H -9.3854100393 0.0417578944 0.2737714267
H -7.4897804503 1.5504419125 0.2853612755
H 6.4407055140 1.3111393216 -0.4350558073
H 8.8119099164 0.8006939841 -0.4711965026
58
step=10 E=-2401.206083062910 Eh
C 10.3417081341 -3.0060142512 0.0534895161
N 9.9143724806 -1.6316403688 -0.0393523569
C 10.8896040252 -0.5841828421 -0.2146314555
C 8.5708891161 -1.3246633387 -0.0154651169
C 7.5935146460 -2.3096722863 0.2475306334
C 6.2433345894 -1.9928345898 0.2671162235
C 5.7830332919 -0.6913114644 0.0253248190
C 4.3424755124 -0.3829650697 0.0387680804
C 3.2800792975 -1.2534311619 0.0726617955
C 2.0147802583 -0.6026152730 0.0744903395
C 2.1210974551 0.7623297039 0.0404186315
C 1.0161086376 1.7235827799 0.0267296709
C 1.1166102991 3.0899143442 0.0153477889
S -0.4458976470 3.7996772523 -0.0014724764
C -1.1412996776 2.2080096259 0.0125963735
C -2.5841095927 2.0022272324 0.0079657507
C -3.5924336629 2.9333220929 0.0153657043
C -4.8829419635 2.3430565705 0.0061792036
C -4.8476255132 0.9664812044 -0.0062934630
C -5.9827269193 0.0271564523 -0.0140344594
C -5.8071611968 -1.3531115274 -0.1792363855
C -6.8777848736 -2.2360547415 -0.1879970268
C -8.2023157255 -1.7742767760 -0.0298779782
N -9.2724992739 -2.6409938822 -0.0385477979
C -10.6178617658 -2.1253328030 0.0276470714
C -9.0489574156 -4.0659013177 -0.0738547009
C -8.3812508750 -0.3830265729 0.1382464032
C -7.2984030990 0.4831131659 0.1450774460
S -3.2152691725 0.3975684790 -0.0042100990
N -0.2714637865 1.2442075978 0.0260494585
S 3.7760578450 1.2540122357 0.0128777173
C 6.7538381143 0.2849649801 -0.2319940758
C 8.1097899888 -0.0122803786 -0.2526627115
H 10.1727501844 -3.4389257088 1.0575018728
H 11.4162988605 -3.0686832811 -0.1620841252
H 9.8189617715 -3.6458657099 -0.6789151497
H 11.8956469381 -0.9907813347 -0.0481904811
H 10.7402292138 0.2333881071 0.5114590559
H 10.8654131654 -0.1408951925 -1.2286195939
H 7.8892207168 -3.3386726025 0.4562404649
H 5.5272807496 -2.7880967487 0.4910735019
H 3.3981832867 -2.3382130339 0.0817341378
H 1.0463872129 -1.1043143377 0.0937723748
H 2.0208507916 3.6975097107 0.0154450291
H -3.4134383140 4.0112520120 0.0241036914
H -5.8073522634 2.9220837332 -0.0002047897
H -4.8004856967 -1.7609682702 -0.3161665312
H -6.6760704504 -3.2981061857 -0.3329944491
H -10.8577313776 -1.6801067586 1.0120333457
H -11.3304466327 -2.9397177351 -0.1569033381
H -10.7934416527 -1.3531478893 -0.7408427648
H -8.3478969629 -4.3883560996 0.7156179935
H -8.6432104612 -4.4098843959 -1.0437995890
H -9.9995027519 -4.5877471259 0.0967023911
H -9.3796510784 0.0322713125 0.2802469894
H -7.4903245214 1.5492888884 0.2918678902
H 6.4466579302 1.3154212011 -0.4378317637
H 8.8150768332 0.7903205043 -0.4718918158
58
step=11 E=-2401.206187431305 Eh
C 10.3263704770 -3.0189734849 0.0796740157
N 9.9072709822 -1.6436412036 -0.0317764315
C 10.8882937903 -0.6038063174 -0.2183220646
C 8.5653520527 -1.3294892849 -0.0136531563
C 7.5879966187 -2.3136021955 0.2523728143
C 6.2384504678 -1.9942004526 0.2679951900
C 5.7795055934 -0.6936505972 0.0186811017
C 4.3394594538 -0.3832338048 0.0281277228
C 3.2750414779 -1.2515627256 0.0506007392
C 2.0111674087 -0.5982675049 0.0538224554
C 2.1201636339 0.7667405718 0.0320925281
C 1.0169434987 1.7299483877 0.0222274166
C 1.1197730012 3.0960980700 0.0146273280
S -0.4422811596 3.8075235017 0.0012197923
C -1.1398233679 2.2172911125 0.0103129412
C -2.5825107561 2.0106295561 0.0064195220
C -3.5920336376 2.9403241233 0.0129208539
C -4.8812946096 2.3471011060 0.0048868392
C -4.8441205887 0.9706126927 -0.0063046656
C -5.9767258540 0.0282667424 -0.0125848722
C -5.8008198469 -1.3495940153 -0.1954570189
C -6.8706097404 -2.2336746140 -0.2023880282
C -8.1941941318 -1.7762269495 -0.0250268441
N -9.2632078579 -2.6444501354 -0.0313662776
C -10.6080083197 -2.1320744254 0.0626702915
C -9.0376576090 -4.0679547610 -0.0935897847
C -8.3738745419 -0.3872501275 0.1603752191
C -7.2915104222 0.4793455198 0.1657187599
S -3.2108258611 0.4048070754 -0.0041339752
N -0.2712257129 1.2522177463 0.0199741984
S 3.7762352107 1.2549180175 0.0141762044
C 6.7516012163 0.2802164098 -0.2422767496
C 8.1075163176 -0.0173797155 -0.2588961202
H 10.1418097901 -3.4408069806 1.0855500605
H 11.4034123411 -3.0891376107 -0.1205466303
H 9.8100537912 -3.6639589697 -0.6529843265
H 11.8926883333 -1.0170499328 -0.0588275605
H 10.7508926657 0.2179835599 0.5055264073
H 10.8587651847 -0.1644889136 -1.2337863312
H 7.8827190943 -3.3418174181 0.4662073972
H 5.5210591556 -2.7871457671 0.4955235333
H 3.3912016065 -2.3365270004 0.0497271451
H 1.0416136139 -1.0978099619 0.0651574399
H 2.0247193715 3.7025296561 0.0158844469
H -3.4151830725 4.0185711738 0.0198881755
H -5.8067380618 2.9243784516 -0.0031449861
H -4.7952597769 -1.7543062735 -0.3483801806
H -6.6685612894 -3.2936415325 -0.3612031539
H -10.8292275547 -1.6917176014 1.0534867044
H -11.3224110189 -2.9471339766 -0.1111789056
H -10.8004213281 -1.3566108639 -0.6986240799
H -8.3343198194 -4.4049639672 0.6879216587
H -8.6337831330 -4.3928047988 -1.0707873436
H -9.9871776736 -4.5941782968 0.0687231552
H -9.3711639656 0.0253874301 0.3168484343
H -7.4830179907 1.5433144887 0.3276925356
H 6.4453695790 1.3095900672 -0.4545813187
H 8.8137484095 0.7836414996 -0.4803762637
58
step=12 E=-2401.206352160463 Eh
C 10.3367600672 -3.0200893519 0.1235669675
N 9.9146773554 -1.6483175578 -0.0168848362
C 10.8909558188 -0.6070980032 -0.2193748169
C 8.5716879780 -1.3379881726 -0.0088489255
C 7.5949247714 -2.3219549571 0.2600682894
C 6.2445374225 -2.0054588707 0.2676721564
C 5.7846170232 -0.7075642598 0.0059129505
C 4.3440139849 -0.3996884515 0.0082299268
C 3.2801799442 -1.2690426228 0.0119735817
C 2.0162263895 -0.6159223390 0.0172844032
C 2.1233917457 0.7494877135 0.0154916847
C 1.0206018261 1.7134066618 0.0122190867
C 1.1269824111 3.0792626269 0.0114347167
S -0.4338507805 3.7939406560 0.0044123063
C -1.1344320468 2.2055024084 0.0054520740
C -2.5778392661 2.0031257426 0.0035802883
C -3.5845319618 2.9357591795 0.0086789446
C -4.8754885155 2.3457573310 0.0028561961
C -4.8419626823 0.9691579913 -0.0053539546
C -5.9766446155 0.0292186585 -0.0089744520
C -5.8057216313 -1.3454521053 -0.2185192007
C -6.8765425707 -2.2284227010 -0.2235459925
C -8.1965388525 -1.7725916244 -0.0176204441
N -9.2679171366 -2.6380910054 -0.0210770859
C -10.6079733283 -2.1231808876 0.1155537902
C -9.0480616090 -4.0599990934 -0.1249186798
C -8.3704503043 -0.3866072666 0.1944235770
C -7.2875230974 0.4793245288 0.1983652367
S -3.2102826171 0.3988899887 -0.0025546762
N -0.2684420376 1.2378872121 0.0085721836
S 3.7793440267 1.2380050861 0.0141353056
C 6.7556078861 0.2662353005 -0.2593459776
C 8.1121339860 -0.0290162028 -0.2671781965
H 10.1321410814 -3.4270358320 1.1316119464
H 11.4181998489 -3.0885177081 -0.0515838964
H 9.8390483985 -3.6792454265 -0.6096767817
H 11.8980823509 -1.0171074249 -0.0695877205
H 10.7598951271 0.2191720500 0.5008837250
H 10.8484091664 -0.1740128431 -1.2369476682
H 7.8908618185 -3.3479282395 0.4826710361
H 5.5274874602 -2.7975059473 0.4996991681
H 3.3974700688 -2.3537967382 -0.0046791010
H 1.0468208460 -1.1158355599 0.0157968901
H 2.0331968468 3.6838395048 0.0143158651
H -3.4047751469 4.0135700447 0.0122048195
H -5.7995637952 2.9252589836 -0.0079314196
H -4.8032466059 -1.7482772600 -0.3949417143
H -6.6779274188 -3.2856890880 -0.4030386880
H -10.7978524249 -1.6893746852 1.1156047504
H -11.3293246256 -2.9353836769 -0.0418257293
H -10.8213587908 -1.3414865026 -0.6340181460
H -8.3431161906 -4.4233496424 0.6435140195
H -8.6490106709 -4.3571785012 -1.1127491956
H -9.9992792649 -4.5869182144 0.0244821920
H -9.3646023927 0.0246582951 0.3726862318
H -7.4746277195 1.5403646677 0.3833927882
H 6.4480951661 1.2931308042 -0.4818053733
H 8.8175961696 0.7720213929 -0.4908394427
58
step=13 E=-2401.206558627630 Eh
C 10.3492540933 -3.0308805007 0.1920846721
N 9.9231170105 -1.6651742940 0.0101039701
C 10.8993407133 -0.6276315095 -0.2110233189
C 8.5794113981 -1.3570785446 0.0001889686
C 7.5979714874 -2.3359428921 0.2713641499
C 6.2477919612 -2.0177246748 0.2641228223
C 5.7923064199 -0.7220684457 -0.0165215523
C 4.3522771169 -0.4116069648 -0.0259134698
C 3.2875485250 -1.2796848546 -0.0490449263
C 2.0236394494 -0.6263784688 -0.0413739591
C 2.1333560152 0.7387259893 -0.0149593310
C 1.0299289147 1.7021360403 -0.0073559446
C 1.1342459272 3.0681546615 0.0033243398
S -0.4268456797 3.7822609730 0.0087967638
C -1.1257801381 2.1927312412 -0.0027589251
C -2.5694095367 1.9913283563 0.0001005224
C -3.5749054061 2.9253701818 0.0055693930
C -4.8673359556 2.3382180956 0.0037630306
C -4.8347160165 0.9616011003 -0.0015868829
C -5.9722638628 0.0252864825 -0.0018456145
C -5.8097073740 -1.3443187150 -0.2484037605
C -6.8839471365 -2.2230748518 -0.2519397888
C -8.1981086040 -1.7688539201 -0.0076723888
N -9.2721271789 -2.6310107325 -0.0100821644
C -10.6054546055 -2.1166541005 0.1840011169
C -9.0590894614 -4.0484315635 -0.1731798875
C -8.3632326846 -0.3881598979 0.2424917271
C -7.2769955879 0.4739156129 0.2450624943
S -3.2041045287 0.3878605490 0.0002024746
N -0.2588694209 1.2259103637 -0.0111675351
S 3.7896964755 1.2263761619 0.0079338088
C 6.7669345224 0.2469612532 -0.2862050883
C 8.1229340377 -0.0510834155 -0.2786625395
H 10.1153305862 -3.4163928632 1.2020307022
H 11.4362308529 -3.0947989013 0.0537259982
H 9.8794028384 -3.7102771101 -0.5414799171
H 11.9070860774 -1.0388044384 -0.0691968920
H 10.7776952780 0.2064476872 0.5023429213
H 10.8460902776 -0.2048020484 -1.2321877991
H 7.8900826885 -3.3599011710 0.5078475620
H 5.5270480310 -2.8051239903 0.5011475722
H 3.4050092303 -2.3640049587 -0.0872957501
H 1.0536453925 -1.1250716323 -0.0609032700
H 2.0397565090 3.6739152484 0.0079220806
H -3.3929605843 4.0029109840 0.0050693976
H -5.7910513152 2.9185455457 -0.0089845981
H -4.8123456192 -1.7450273470 -0.4563568210
H -6.6925719682 -3.2763963494 -0.4599134727
H -10.7547331380 -1.6961884708 1.1963567453
H -11.3331252379 -2.9265424606 0.0455907971
H -10.8475536154 -1.3244746127 -0.5461190472
H -8.3509058368 -4.4473150032 0.5747671069
H -8.6668592593 -4.3043644886 -1.1750275939
H -10.0120916487 -4.5767944752 -0.0418381687
H -9.3521751587 0.0216955998 0.4506740739
H -7.4556611248 1.5305903558 0.4616843661
H 6.4624731548 1.2714906312 -0.5236092967
H 8.8313179214 0.7467493438 -0.5045234284
58
step=14 E=-2401.206745415822 Eh
C 10.3659971539 -3.0358614597 0.2861738754
N 9.9371657873 -1.6786744805 0.0534947230
C 10.9101538803 -0.6409335967 -0.1824312130
C 8.5924562109 -1.3780413448 0.0159697074
C 7.6078676896 -2.3548769469 0.2836418459
C 6.2572076214 -2.0399362615 0.2532374044
C 5.8035019429 -0.7487758689 -0.0494046843
C 4.3639804407 -0.4377350337 -0.0770014348
C 3.3006058431 -1.3055634513 -0.1379769550
C 2.0368738318 -0.6516688361 -0.1284653918
C 2.1451348958 0.7122887229 -0.0638829545
C 1.0425477354 1.6764252545 -0.0402592710
C 1.1492045387 3.0420140580 -0.0107259963
S -0.4104318598 3.7581589982 0.0131570255
C -1.1131554307 2.1693307704 -0.0181475272
C -2.5571542558 1.9714351321 -0.0083528675
C -3.5569744482 2.9117613102 0.0015750271
C -4.8518625501 2.3303839468 0.0058855558
C -4.8279156174 0.9537439970 0.0016086534
C -5.9708739295 0.0246065307 0.0067186284
C -5.8249973244 -1.3380333404 -0.2852911110
C -6.9037615845 -2.2109586246 -0.2869128015
C -8.2076103230 -1.7547003930 0.0051740453
N -9.2871402048 -2.6095291166 0.0024131277
C -10.6106916353 -2.0987349840 0.2637340218
C -9.0862014336 -4.0183984843 -0.2329404087
C -8.3561576075 -0.3816411557 0.3025857956
C -7.2648751621 0.4742362710 0.3034093252
S -3.2005882309 0.3709242553 -0.0032133374
N -0.2471416666 1.2024022706 -0.0446276423
S 3.8010225528 1.1990117432 -0.0060183965
C 6.7810356538 0.2175507565 -0.3183901791
C 8.1375156572 -0.0769332988 -0.2875378620
H 10.0924326931 -3.3963839408 1.2951532374
H 11.4583142812 -3.0927060167 0.1963778766
H 9.9331749954 -3.7387639857 -0.4483696828
H 11.9193714560 -1.0487051396 -0.0422606641
H 10.7902253250 0.2016707246 0.5216818191
H 10.8503726110 -0.2305302571 -1.2079722879
H 7.8978341334 -3.3755307379 0.5363277405
H 5.5339825200 -2.8247093044 0.4915595972
H 3.4197006935 -2.3884207347 -0.2048462727
H 1.0673829876 -1.1497498516 -0.1731647676
H 2.0556700276 3.6463392648 -0.0027985159
H -3.3687855583 3.9882607480 -0.0016461662
H -5.7730983154 2.9146888616 -0.0056447372
H -4.8358748764 -1.7368205999 -0.5326674330
H -6.7248882094 -3.2588874867 -0.5301156463
H -10.7144555335 -1.6992677754 1.2898602664
H -11.3437189440 -2.9063865835 0.1425402733
H -10.8850621049 -1.2915917173 -0.4385647668
H -8.3740132218 -4.4599638294 0.4870262586
H -8.7041333908 -4.2237341515 -1.2499939370
H -10.0421596457 -4.5457721935 -0.1216623764
H -9.3368437626 0.0271939429 0.5484201869
H -7.4295623125 1.5246801347 0.5586118841
H 6.4773319244 1.2381511727 -0.5729299047
H 8.8476978339 0.7198431977 -0.5117113670
58
step=15 E=-2401.206935951988 Eh
C 10.3476158453 -3.0666096066 0.4112609199
N 9.9337841282 -1.7158518463 0.1220554715
C 10.9186097524 -0.6900822631 -0.1173007622
C 8.5921913208 -1.4097130864 0.0438907468
C 7.5978127704 -2.3818256505 0.2914989515
C 6.2500512272 -2.0601667268 0.2256205683
C 5.8112846356 -0.7688418107 -0.0968403327
C 4.3732297432 -0.4562049438 -0.1541905060
C 3.3112936697 -1.3179448043 -0.2834780246
C 2.0475638951 -0.6635014224 -0.2723501607
C 2.1549700650 0.6955530830 -0.1402473581
C 1.0540149260 1.6606645085 -0.0921460813
C 1.1655044482 3.0245657718 -0.0266100117
S -0.3915044928 3.7444588741 0.0217002274
C -1.0994675397 2.1591300392 -0.0510631070
C -2.5443452724 1.9674482518 -0.0354251550
C -3.5433416847 2.9086049299 -0.0146588648
C -4.8413230548 2.3343165020 -0.0018164524
C -4.8189959201 0.9579257545 -0.0102271663
C -5.9648220206 0.0330765253 0.0058557465
C -5.8376829447 -1.3138373509 -0.3579756121
C -6.9212192264 -2.1806774422 -0.3464337850
C -8.2079982676 -1.7360256098 0.0288471582
N -9.2903567854 -2.5871267761 0.0369845867
C -10.5936723607 -2.0909403846 0.4061831126
C -9.1093686715 -3.9774711670 -0.3008067695
C -8.3364736438 -0.3784798691 0.3975925863
C -7.2406161605 0.4714777127 0.3863024005
S -3.1936434539 0.3696920553 -0.0319923814
N -0.2370174248 1.1904862707 -0.1068388775
S 3.8092978180 1.1754733635 -0.0166779062
C 6.7971865933 0.1934415073 -0.3497123677
C 8.1504924295 -0.1090144972 -0.2810602307
H 10.0099146721 -3.4026305367 1.4089409184
H 11.4434637629 -3.1229804998 0.3939262399
H 9.9630266311 -3.7885029504 -0.3320578568
H 11.9230314913 -1.1100582448 0.0208173423
H 10.8107787959 0.1574334193 0.5835559131
H 10.8614062120 -0.2833632160 -1.1440923396
H 7.8765583803 -3.4025104557 0.5562099379
H 5.5160321378 -2.8384176615 0.4527255392
H 3.4329471073 -2.3962333204 -0.4012717073
H 1.0791404159 -1.1572432327 -0.3637821952
H 2.0740777199 3.6254711925 -0.0065236239
H -3.3515712206 3.9843915826 -0.0164718898
H -5.7617583326 2.9202243371 -0.0066218209
H -4.8636193608 -1.7019948789 -0.6731577825
H -6.7591154072 -3.2170330212 -0.6444899187
H -10.6240009791 -1.7228418381 1.4483811277
H -11.3298716785 -2.8996622293 0.3156818156
H -10.9224828176 -1.2646024531 -0.2494741826
H -8.3857019975 -4.4757571994 0.3694884595
H -8.7514520117 -4.1117582097 -1.3380561747
H -10.0681706320 -4.5029740991 -0.2071876684
H -9.3023705178 0.0208294429 0.7090678960
H -7.3850893971 1.5085727845 0.7015465708
H 6.5033819461 1.2130895731 -0.6196447782
H 8.8703391092 0.6830339170 -0.4904105579
58
step=16 E=-2401.206999010192 Eh
C 10.2649838610 -3.1424759732 0.4613670679
N 9.8823485052 -1.7852200465 0.1604827937
C 10.8910491516 -0.7804902876 -0.0674069130
C 8.5481271174 -1.4528952837 0.0654793988
C 7.5341283357 -2.4096702352 0.2915828165
C 6.1930538474 -2.0649684512 0.2090098183
C 5.7820104159 -0.7644284039 -0.1120319187
C 4.3502055670 -0.4285406298 -0.1885688741
C 3.2809151368 -1.2726589162 -0.3636327245
C 2.0253308815 -0.6027261636 -0.3556486619
C 2.1480830153 0.7500810924 -0.1812991797
C 1.0541445389 1.7223465293 -0.1227178373
C 1.1677785054 3.0847414149 -0.0340324018
S -0.3880453527 3.8067204573 0.0242329252
C -1.0990425224 2.2249021847 -0.0790466357
C -2.5429092022 2.0270074763 -0.0641642896
C -3.5496416285 2.9597330609 -0.0333949622
C -4.8414963609 2.3716560357 -0.0163984832
C -4.8082682048 0.9955652485 -0.0329478082
C -5.9407949893 0.0546491460 -0.0094932322
C -5.8109103911 -1.2789262581 -0.4183552824
C -6.8798050016 -2.1634726729 -0.3937204340
C -8.1569487883 -1.7480756624 0.0424573433
N -9.2255265217 -2.6164365325 0.0669984570
C -10.5176952110 -2.1521642333 0.5081502095
C -9.0414990005 -3.9915216905 -0.3269681493
C -8.2898846958 -0.4033501043 0.4547503594
C -7.2073878083 0.4633930066 0.4288821650
S -3.1781960261 0.4237282716 -0.0686753593
N -0.2379132627 1.2563164976 -0.1503889873
S 3.8050308477 1.2054376487 -0.0102649801
C 6.7873813604 0.1827140826 -0.3439697391
C 8.1343924755 -0.1423199758 -0.2567087893
H 9.8914379255 -3.4725559444 1.4480071547
H 11.3597899340 -3.2170314386 0.4778642114
H 9.8912090522 -3.8583291023 -0.2933157885
H 11.8852077389 -1.2254154969 0.0668703251
H 10.8029849753 0.0631719681 0.6410323114
H 10.8444100622 -0.3633967622 -1.0903602373
H 7.7917607951 -3.4369997087 0.5515677157
H 5.4420088424 -2.8314394520 0.4199268486
H 3.3924154282 -2.3481344371 -0.5125292487
H 1.0525370356 -1.0804063619 -0.4793293891
H 2.0775319750 3.6832153681 -0.0024590089
H -3.3679465426 4.0372328564 -0.0294238512
H -5.7677759352 2.9482113014 -0.0128645594
H -4.8439961473 -1.6425160799 -0.7808125525
H -6.7139203488 -3.1883777867 -0.7270816028
H -10.5032683483 -1.8058424613 1.5579758436
H -11.2425204933 -2.9730684018 0.4371694936
H -10.8933613069 -1.3192543168 -0.1132400757
H -8.2960146419 -4.5079408736 0.3048077868
H -8.7104399007 -4.0837227994 -1.3774645318
H -9.9929023215 -4.5294298306 -0.2282500857
H -9.2488297538 -0.0282252041 0.8139556503
H -7.3527669577 1.4881177323 0.7818281302
H 6.5140001455 1.2084023251 -0.6122702441
H 8.8709530066 0.6384991904 -0.4492402014
58
step=17 E=-2401.207035441838 Eh
C 10.2431950989 -3.1895709958 0.5581805911
N 9.8751161230 -1.8421521311 0.1995912537
C 10.8889301072 -0.8520567003 -0.0666466739
C 8.5437266615 -1.5014252786 0.0960441293
C 7.5220131076 -2.4478990240 0.3306451476
C 6.1843913586 -2.0922726142 0.2357617674
C 5.7824270660 -0.7947005587 -0.1075435940
C 4.3548804337 -0.4450300277 -0.2035393643
C 3.2870143022 -1.2777699193 -0.4323927146
C 2.0352429824 -0.6006418481 -0.4305143822
C 2.1597681373 0.7449028844 -0.2072493243
C 1.0665237956 1.7178336068 -0.1417821844
C 1.1787155988 3.0798670200 -0.0452638746
S -0.3779504237 3.7999968564 0.0235850839
C -1.0866805725 2.2188723071 -0.0961326316
C -2.5305010020 2.0196211329 -0.0836656059
C -3.5343956950 2.9559597342 -0.0629781751
C -4.8274787089 2.3699460361 -0.0426647784
C -4.7927167522 0.9937021299 -0.0480103008
C -5.9301609608 0.0591662557 -0.0176471154
C -5.8278833186 -1.2508748582 -0.5032283076
C -6.9030761056 -2.1275576801 -0.4694739387
C -8.1537416582 -1.7319593700 0.0537593373
N -9.2258432040 -2.5961280165 0.0882958458
C -10.4838149984 -2.1631284397 0.6444362824
C -9.0799576574 -3.9393021824 -0.4163305626
C -8.2563411462 -0.4106455157 0.5434990906
C -7.1692043280 0.4503649020 0.5068618536
S -3.1650032021 0.4160752617 -0.0675580567
N -0.2251060598 1.2510408676 -0.1727643343
S 3.8137033916 1.1841530329 0.0245204388
C 6.7975422763 0.1398756016 -0.3462743940
C 8.1422112792 -0.1920116642 -0.2464672692
H 9.8331847617 -3.4848299777 1.5409979133
H 11.3364038790 -3.2646073387 0.6184891991
H 9.8949837864 -3.9313598313 -0.1842298604
H 11.8811834393 -1.3080037135 0.0420122259
H 10.8328450073 0.0021378342 0.6330924697
H 10.8164684776 -0.4475101889 -1.0927836141
H 7.7701933091 -3.4743313458 0.6031990597
H 5.4254074552 -2.8491591469 0.4527175163
H 3.3987988279 -2.3475067092 -0.6185999261
H 1.0630620294 -1.0676161880 -0.5935881172
H 2.0880086065 3.6792106805 -0.0150658698
H -3.3500373596 4.0330962112 -0.0713637740
H -5.7546648216 2.9455215091 -0.0508177844
H -4.8835119441 -1.5977592752 -0.9350181226
H -6.7625489395 -3.1346080960 -0.8632909983
H -10.3896685305 -1.8605863641 1.7033326141
H -11.2056641410 -2.9883971499 0.5971517064
H -10.9129929613 -1.3089711458 0.0893425763
H -8.3253410076 -4.5187331879 0.1470627299
H -8.7844436373 -3.9523467699 -1.4809053496
H -10.0388452659 -4.4660722331 -0.3308141156
H -9.1927443597 -0.0504120679 0.9709533503
H -7.2849952767 1.4556172132 0.9221079000
H 6.5320186931 1.1628668602 -0.6320312622
H 8.8860008724 0.5807634589 -0.4443686228
58
step=18 E=-2401.207103951741 Eh
C 10.2849139373 -3.1640064100 0.5093467703
N 9.8976007275 -1.8204175035 0.1571444060
C 10.9047951930 -0.8312949911 -0.1362887311
C 8.5623209736 -1.4855410812 0.0859048206
C 7.5524064118 -2.4368175312 0.3504496379
C 6.2097734078 -2.0934635503 0.2841020802
C 5.7934386653 -0.8002334156 -0.0585612459
C 4.3611791686 -0.4649526643 -0.1326358078
C 3.2952939635 -1.3076879171 -0.3324947021
C 2.0387233145 -0.6394972922 -0.3303504046
C 2.1582287779 0.7110271433 -0.1347477877
C 1.0628868830 1.6826929057 -0.0859894311
C 1.1776847112 3.0462380725 -0.0194226434
S -0.3779342221 3.7706656108 0.0246187020
C -1.0891748270 2.1885736720 -0.0613539855
C -2.5343108612 1.9969069970 -0.0619035459
C -3.5320619762 2.9397369543 -0.0750006691
C -4.8290120829 2.3617622096 -0.0651083862
C -4.8048584031 0.9855693166 -0.0427654691
C -5.9483313069 0.0577244794 -0.0174419661
C -5.8476067480 -1.2614145079 -0.4786022238
C -6.9255409998 -2.1352492268 -0.4558160181
C -8.1823625096 -1.7202237252 0.0360926620
N -9.2599812880 -2.5776579238 0.0630406366
C -10.5251070735 -2.1256900230 0.5873187855
C -9.1145920623 -3.9310254234 -0.4144476194
C -8.2852683932 -0.3902512279 0.5020769249
C -7.1943328859 0.4664506340 0.4759372730
S -3.1805260997 0.3982480743 -0.0223219082
N -0.2294468390 1.2169453182 -0.1096394667
S 3.8116745438 1.1639459909 0.0741724854
C 6.7958225584 0.1411303908 -0.3242367085
C 8.1447335382 -0.1803337666 -0.2533681057
H 9.9089072985 -3.4575784030 1.5061522357
H 11.3800476426 -3.2326503888 0.5341985357
H 9.9169919882 -3.9103442169 -0.2187934140
H 11.8995831372 -1.2856397175 -0.0437795710
H 10.8620310485 0.0276430475 0.5583272156
H 10.8116668463 -0.4344075177 -1.1637449756
H 7.8146491500 -3.4598567995 0.6226908348
H 5.4611183267 -2.8549874817 0.5204106834
H 3.4119608551 -2.3798815481 -0.5008066294
H 1.0680142667 -1.1155057944 -0.4755218688
H 2.0881426693 3.6442900384 -0.0015221326
H -3.3404229374 4.0152713293 -0.1030776932
H -5.7520369572 2.9428959423 -0.1007964242
H -4.8960942782 -1.6199844112 -0.8841552876
H -6.7834907989 -3.1492627573 -0.8312351726
H -10.4504663325 -1.8111848812 1.6443591560
H -11.2541388395 -2.9443062622 0.5344817615
H -10.9340793453 -1.2744079460 0.0130647152
H -8.3707978907 -4.5036953448 0.1696984799
H -8.8055221819 -3.9661633473 -1.4746723382
H -10.0773193536 -4.4512758734 -0.3315434094
H -9.2285914707 -0.0179796968 0.9032838298
H -7.3130026424 1.4796509755 0.8706764906
H 6.5162030529 1.1605507215 -0.6093650972
H 8.8783015081 0.5963326371 -0.4727558211
58
step=19 E=-2401.207119389203 Eh
C 10.3241690811 -3.1284829599 0.4486963785
N 9.9163873101 -1.7833121753 0.1264097453
C 10.9044302242 -0.7741020414 -0.1654509619
C 8.5760673130 -1.4653505378 0.0783000797
C 7.5774773871 -2.4251231167 0.3552212867
C 6.2311781683 -2.0929085855 0.3086158074
C 5.7989325174 -0.8020365291 -0.0237572366
C 4.3631781860 -0.4791786140 -0.0808138431
C 3.2992342309 -1.3319669950 -0.2470318238
C 2.0396697434 -0.6693810700 -0.2449775748
C 2.1539401052 0.6860306062 -0.0827422939
C 1.0585346925 1.6580436286 -0.0483471090
C 1.1756996523 3.0222801975 -0.0036348531
S -0.3781542534 3.7506841368 0.0175629685
C -1.0934684456 2.1683769008 -0.0396823191
C -2.5391787926 1.9812701615 -0.0457745347
C -3.5336986950 2.9269832803 -0.0764197009
C -4.8323780713 2.3533469187 -0.0713284594
C -4.8173606369 0.9776170802 -0.0349213573
C -5.9630017257 0.0522868048 -0.0129294195
C -5.8541015657 -1.2774057186 -0.4402248650
C -6.9397235031 -2.1417716961 -0.4233963745
C -8.2083870670 -1.7122381453 0.0239695696
N -9.2908736084 -2.5634613208 0.0414099996
C -10.5709766810 -2.0908622576 0.5091787121
C -9.1363454261 -3.9324305118 -0.3861500807
C -8.3188472351 -0.3719263770 0.4561851217
C -7.2205724542 0.4753832016 0.4377610470
S -3.1944743694 0.3859737099 -0.0020238855
N -0.2348952603 1.1948642086 -0.0699797935
S 3.8079754813 1.1523357175 0.0875095287
C 6.7887916263 0.1495742234 -0.3004074598
C 8.1403784672 -0.1634105335 -0.2494720700
H 9.9840990252 -3.4379580921 1.4537252894
H 11.4198471683 -3.1901120590 0.4349735439
H 9.9367957950 -3.8669526188 -0.2769821529
H 11.9077812433 -1.2092262327 -0.0735826306
H 10.8452636432 0.0811248427 0.5320680218
H 10.8038562811 -0.3753144029 -1.1916004410
H 7.8520621952 -3.4461942371 0.6225810114
H 5.4928172952 -2.8619265336 0.5528481102
H 3.4183909386 -2.4075506991 -0.3898089723
H 1.0699983710 -1.1539737808 -0.3667297473
H 2.0873165047 3.6184964803 0.0092546781
H -3.3380429408 4.0014305483 -0.1133284417
H -5.7521677977 2.9384225470 -0.1179547240
H -4.8938607858 -1.6502790372 -0.8108738380
H -6.7945855231 -3.1648171871 -0.7719935051
H -10.5353627757 -1.7608645521 1.5636499760
H -11.3065059024 -2.9022337991 0.4384898631
H -10.9472568389 -1.2445916149 -0.0935600898
H -8.3996621485 -4.4808055538 0.2289026565
H -8.8124585563 -4.0052760364 -1.4401606362
H -10.0987211815 -4.4522269036 -0.2969613106
H -9.2704024136 0.0148209491 0.8227489736
H -7.3449399741 1.4988250239 0.8026710210
H 6.4975814873 1.1680660685 -0.5768795197
H 8.8642538883 0.6199117709 -0.4770335275
58
step=20 E=-2401.207142829474 Eh
C 10.3183060111 -3.1318635259 0.4884325433
N 9.9146867948 -1.7872678709 0.1587395682
C 10.9085502084 -0.7797840455 -0.1185658615
C 8.5752906483 -1.4686535137 0.0912618932
C 7.5740536155 -2.4291585347 0.3560739507
C 6.2283259175 -2.0972284639 0.2933709734
C 5.7987075829 -0.8068347512 -0.0439196336
C 4.3637802681 -0.4820701717 -0.1142332099
C 3.2999514632 -1.3321968170 -0.2942726329
C 2.0410129485 -0.6681379028 -0.2950238752
C 2.1550754784 0.6857338027 -0.1217066428
C 1.0595933050 1.6574764471 -0.0817014978
C 1.1763647864 3.0214778738 -0.0272820964
S -0.3778554950 3.7482560141 0.0074657217
C -1.0923561668 2.1659253671 -0.0614097345
C -2.5378335667 1.9775290122 -0.0572900741
C -3.5340071380 2.9221237691 -0.0717598499
C -4.8332923320 2.3501521150 -0.0586893160
C -4.8133480851 0.9741862036 -0.0339915940
C -5.9611889023 0.0520916278 -0.0088084074
C -5.8637267423 -1.2699734852 -0.4621374755
C -6.9497261243 -2.1338027605 -0.4436508833
C -8.2091019689 -1.7081952520 0.0327823973
N -9.2944877334 -2.5556294780 0.0518858654
C -10.5643434498 -2.0860517656 0.5495283595
C -9.1523844589 -3.9165810467 -0.4045217218
C -8.3071815577 -0.3756768340 0.4915277796
C -7.2089914153 0.4716536136 0.4711159157
S -3.1905196006 0.3813601556 -0.0199794036
N -0.2334571647 1.1934193175 -0.1040720188
S 3.8088179612 1.1491693692 0.0585979116
C 6.7922318914 0.1440035918 -0.3098113197
C 8.1436837321 -0.1668331765 -0.2429240994
H 9.9614542194 -3.4410241270 1.4877620873
H 11.4141420806 -3.1922093802 0.4934395195
H 9.9442180095 -3.8712542705 -0.2432754712
H 11.9095733692 -1.2174366582 -0.0140661632
H 10.8418602906 0.0745746552 0.5794541106
H 10.8224605357 -0.3792761515 -1.1453524542
H 7.8458055897 -3.4497969878 0.6280783008
H 5.4876222344 -2.8660991587 0.5308424727
H 3.4187319115 -2.4070562213 -0.4427977168
H 1.0715252877 -1.1509852473 -0.4250102343
H 2.0876709760 3.6182364336 -0.0112786803
H -3.3389102217 3.9969118351 -0.1017453280
H -5.7543621264 2.9344271814 -0.0919555503
H -4.9106952110 -1.6372926121 -0.8562975676
H -6.8129146279 -3.1504987861 -0.8136451272
H -10.5092138286 -1.7737963011 1.6085622434
H -11.3043410109 -2.8932634360 0.4780144447
H -10.9471827005 -1.2282673413 -0.0325721056
H -8.4093499843 -4.4801650998 0.1888768430
H -8.8438662605 -3.9697931516 -1.4643387785
H -10.1157576389 -4.4338559034 -0.3117146572
H -9.2514668658 0.0057694947 0.8815694600
H -7.3242431091 1.4882449255 0.8579016083
H 6.5037657792 1.1623011885 -0.5898207354
H 8.8696355287 0.6171412673 -0.4616380159
58
step=21 E=-2401.207144653682 Eh
C 10.2866169331 -3.1620154099 0.5135299828
N 9.8978224351 -1.8149702123 0.1760070343
C 10.9011477475 -0.8168345933 -0.1000213807
C 8.5617965225 -1.4841691353 0.1016770745
C 7.5521155329 -2.4358728665 0.3658482906
C 6.2094872409 -2.0929690138 0.2974056436
C 5.7925720830 -0.8001113120 -0.0457777281
C 4.3595820348 -0.4675066240 -0.1190190160
C 3.2935572414 -1.3143996975 -0.3004570998
C 2.0363557418 -0.6470653061 -0.3022320594
C 2.1551955496 0.7062343416 -0.1284369148
C 1.0594144426 1.6776239781 -0.0890435155
C 1.1733472580 3.0419782835 -0.0362466801
S -0.3822554057 3.7656346956 0.0039679940
C -1.0927093612 2.1818996964 -0.0649248143
C -2.5375420458 1.9899586501 -0.0576870188
C -3.5341125792 2.9342316397 -0.0717650179
C -4.8312150685 2.3572741202 -0.0577746778
C -4.8083772993 0.9812380871 -0.0315759529
C -5.9543410827 0.0567769261 -0.0065354112
C -5.8608568859 -1.2590600217 -0.4783605265
C -6.9466313673 -2.1232516586 -0.4603103907
C -8.2015278528 -1.7046351469 0.0339509439
N -9.2868562150 -2.5524184107 0.0506544234
C -10.5523826667 -2.0895753672 0.5645975456
C -9.1488957485 -3.9067938229 -0.4259941310
C -8.2953646362 -0.3785985643 0.5123215237
C -7.1971829270 0.4687607640 0.4921067050
S -3.1849920023 0.3917511086 -0.0131175051
N -0.2324936553 1.2106759654 -0.1065987715
S 3.8096038733 1.1649027345 0.0582792124
C 6.7942512779 0.1420783173 -0.3118857474
C 8.1428454422 -0.1797613645 -0.2388821599
H 9.9201236368 -3.4643224734 1.5114838525
H 11.3817889192 -3.2325866819 0.5263374398
H 9.9105924518 -3.9007938654 -0.2178490722
H 11.8980324097 -1.2630303807 0.0077189465
H 10.8398461375 0.0391851843 0.5966010393
H 10.8212613762 -0.4171136402 -1.1276321222
H 7.8145111707 -3.4577175239 0.6423847016
H 5.4613060902 -2.8544102675 0.5355099770
H 3.4096218742 -2.3895199845 -0.4491298419
H 1.0653836218 -1.1266216032 -0.4333025875
H 2.0834405508 3.6407260563 -0.0227224147
H -3.3413362800 4.0094763124 -0.1036702926
H -5.7541888239 2.9385296815 -0.0927494170
H -4.9119844981 -1.6203423408 -0.8878424500
H -6.8134083395 -3.1346931832 -0.8457128676
H -10.4885878259 -1.7900540984 1.6268312276
H -11.2928075370 -2.8960903444 0.4893325739
H -10.9398660680 -1.2248756611 -0.0041292183
H -8.4024391516 -4.4797479366 0.1541421308
H -8.8476049915 -3.9452105399 -1.4885488891
H -10.1121521220 -4.4244621683 -0.3340042538
H -9.2354475674 -0.0028419697 0.9176894723
H -7.3076334065 1.4795262437 0.8953392597
H 6.5151649528 1.1616401048 -0.5968935702
H 8.8763354576 0.5972199177 -0.4575246682
58
step=22 E=-2401.207159562504 Eh
C 10.2861634856 -3.1670437034 0.5069779246
N 9.8943590890 -1.8189450354 0.1771103729
C 10.8949754843 -0.8176508614 -0.0973203920
C 8.5576119375 -1.4898115819 0.1088361109
C 7.5499576487 -2.4426644055 0.3763156735
C 6.2067952376 -2.1008151207 0.3128819297
C 5.7859148894 -0.8086069264 -0.0282017053
C 4.3531295700 -0.4742368299 -0.0978948451
C 3.2851256992 -1.3204975118 -0.2705688028
C 2.0293326670 -0.6505881096 -0.2733485979
C 2.1508497038 0.7036561121 -0.1089051231
C 1.0572330213 1.6777244134 -0.0747312104
C 1.1737366998 3.0420715156 -0.0291842915
S -0.3803994871 3.7693575483 0.0025323891
C -1.0943146543 2.1866807354 -0.0568194358
C -2.5396020539 1.9974701309 -0.0532696804
C -3.5363373026 2.9413016829 -0.0777188295
C -4.8344247154 2.3664353491 -0.0663897819
C -4.8125449062 0.9906220525 -0.0307238378
C -5.9589592147 0.0666338997 -0.0060948325
C -5.8646980497 -1.2497297033 -0.4761857328
C -6.9509497397 -2.1133608231 -0.4610135637
C -8.2073510457 -1.6929444430 0.0279178391
N -9.2936065424 -2.5396193051 0.0403163031
C -10.5627862696 -2.0731949507 0.5418866135
C -9.1531853434 -3.8964553778 -0.4285378897
C -8.3019102159 -0.3665446320 0.5051770524
C -7.2029928310 0.4799578719 0.4884845010
S -3.1894122167 0.4004962134 -0.0018444717
N -0.2357677931 1.2136282689 -0.0905405438
S 3.8065127670 1.1602389378 0.0715392253
C 6.7863448280 0.1340971242 -0.2967116047
C 8.1357104191 -0.1857054575 -0.2291187220
H 9.9295192905 -3.4726915149 1.5075297225
H 11.3813900828 -3.2378525778 0.5085612426
H 9.9027900818 -3.9032287389 -0.2231047812
H 11.8931132106 -1.2608385598 0.0111344803
H 10.8302593347 0.0374092385 0.6001057817
H 10.8149460752 -0.4171283524 -1.1246540055
H 7.8143928569 -3.4643500471 0.6514999067
H 5.4607531888 -2.8635473566 0.5532948600
H 3.3984933635 -2.3967814844 -0.4126164387
H 1.0572043036 -1.1291757403 -0.3991643671
H 2.0850626805 3.6389533089 -0.0176086109
H -3.3426190713 4.0161298553 -0.1158581948
H -5.7568126057 2.9480705665 -0.1097189073
H -4.9145478226 -1.6117457163 -0.8819906809
H -6.8172734650 -3.1251572597 -0.8453262097
H -10.5093204000 -1.7747978775 1.6050475852
H -11.3051802421 -2.8770083671 0.4577472533
H -10.9411315735 -1.2067245750 -0.0301849215
H -8.4066055051 -4.4646274833 0.1560041457
H -8.8505215684 -3.9409544737 -1.4905203149
H -10.1157138253 -4.4150706557 -0.3342790586
H -9.2430807333 0.0100122976 0.9072674505
H -7.3137572766 1.4910390239 0.8908228217
H 6.5053178521 1.1535748421 -0.5800866914
H 8.8672762998 0.5923435962 -0.4503993552
58
step=23 E=-2401.207167889890 Eh
C 10.2978747498 -3.1623818787 0.5168287977
N 9.9008381531 -1.8153401481 0.1890275169
C 10.8986620844 -0.8101639194 -0.0819147754
C 8.5630046046 -1.4906713744 0.1200818345
C 7.5573641740 -2.4461529492 0.3859606926
C 6.2131103077 -2.1087407234 0.3217710663
C 5.7897587672 -0.8170763882 -0.0187997879
C 4.3560001504 -0.4876389646 -0.0894922440
C 3.2897291858 -1.3361779447 -0.2620364210
C 2.0324960611 -0.6690467248 -0.2655235935
C 2.1504436569 0.6857043543 -0.1012984264
C 1.0569027419 1.6600151796 -0.0676355848
C 1.1763383479 3.0240635367 -0.0230290433
S -0.3764338571 3.7544949876 0.0043866363
C -1.0941811703 2.1731716314 -0.0526748516
C -2.5402475899 1.9883382447 -0.0517034919
C -3.5332288768 2.9358697578 -0.0824779762
C -4.8340226235 2.3670316883 -0.0723432314
C -4.8186966476 0.9914101067 -0.0314536675
C -5.9696432071 0.0730632463 -0.0068301971
C -5.8817530853 -1.2428779355 -0.4793016690
C -6.9728461840 -2.1003970254 -0.4657342673
C -8.2273928935 -1.6741167197 0.0230046917
N -9.3182971814 -2.5146481602 0.0330767678
C -10.5863105905 -2.0407901248 0.5312521001
C -9.1835056997 -3.8720772340 -0.4356169668
C -8.3153880258 -0.3483169340 0.5028654134
C -7.2116946701 0.4920060129 0.4883634644
S -3.1979009398 0.3944402344 0.0013723660
N -0.2372190953 1.1985408849 -0.0853587497
S 3.8054348582 1.1457873126 0.0771741691
C 6.7873478286 0.1292384741 -0.2857120811
C 8.1373187566 -0.1876527154 -0.2171985753
H 9.9445058575 -3.4700536123 1.5179672188
H 11.3933127151 -3.2293796317 0.5157371438
H 9.9153947531 -3.8991396797 -0.2131070313
H 11.8980758517 -1.2497212276 0.0293359758
H 10.8286420093 0.0442745369 0.6157260262
H 10.8202539629 -0.4093625468 -1.1092814449
H 7.8244827913 -3.4672958640 0.6605854830
H 5.4690644226 -2.8738864177 0.5609071942
H 3.4053253079 -2.4122893734 -0.4037832879
H 1.0616045370 -1.1500677190 -0.3917774854
H 2.0888660233 3.6190721205 -0.0109565944
H -3.3347114878 4.0096651053 -0.1241825843
H -5.7538154183 2.9523910497 -0.1202768531
H -4.9332356228 -1.6090229704 -0.8852475048
H -6.8444216094 -3.1122463780 -0.8516682041
H -10.5350987892 -1.7455793063 1.5954274490
H -11.3339373517 -2.8391127328 0.4420163821
H -10.9564706869 -1.1701347383 -0.0398225565
H -8.4384211588 -4.4424121795 0.1486170892
H -8.8817318881 -3.9181119432 -1.4978319105
H -10.1478015796 -4.3871462285 -0.3402873855
H -9.2547756038 0.0324075204 0.9052910464
H -7.3170695862 1.5029230418 0.8925851417
H 6.5037933504 1.1481829519 -0.5686293103
H 8.8667668273 0.5925896015 -0.4375337300
58
step=24 E=-2401.207171835232 Eh
C 10.2870910719 -3.1821597060 0.5276919008
N 9.8899969553 -1.8327420216 0.2100145007
C 10.8876001948 -0.8254510212 -0.0539330332
C 8.5522324443 -1.5069479663 0.1453781720
C 7.5465152955 -2.4621277686 0.4121717485
C 6.2025470831 -2.1229789214 0.3510626911
C 5.7789785966 -0.8304885296 0.0134307173
C 4.3455895411 -0.4989829689 -0.0553885288
C 3.2764717492 -1.3457713719 -0.2192254361
C 2.0208881721 -0.6756741748 -0.2243167708
C 2.1425638840 0.6799372969 -0.0696693673
C 1.0522362015 1.6581123488 -0.0418852740
C 1.1762789740 3.0219945927 -0.0058158442
S -0.3739594073 3.7581674694 0.0125104767
C -1.0972109871 2.1791193134 -0.0364570215
C -2.5440949292 1.9995816235 -0.0420082212
C -3.5330163177 2.9506770909 -0.0896912998
C -4.8362433702 2.3871771320 -0.0848206855
C -4.8267361851 1.0120692849 -0.0310059046
C -5.9817654904 0.0987865618 -0.0099396990
C -5.8979922648 -1.2174629459 -0.4822102752
C -6.9936151363 -2.0693428483 -0.4745755253
C -8.2487669576 -1.6362805318 0.0065478525
N -9.3446111384 -2.4705256647 0.0097839157
C -10.6160217522 -1.9857678074 0.4883531884
C -9.2123161256 -3.8317654870 -0.4483037056
C -8.3322803889 -0.3102209328 0.4864788455
C -7.2240908594 0.5242485602 0.4789580420
S -3.2087836075 0.4088738227 0.0202963971
N -0.2435830444 1.2012310344 -0.0609207005
S 3.7993522626 1.1370734509 0.0996875864
C 6.7768200820 0.1154839935 -0.2535258114
C 8.1265836943 -0.2030815274 -0.1884467881
H 9.9452343447 -3.4936997854 1.5317795417
H 11.3822150564 -3.2523858885 0.5122786804
H 9.8935574260 -3.9142627736 -0.2008798789
H 11.8871841727 -1.2632837570 0.0624627530
H 10.8119128021 0.0273917163 0.6449201755
H 10.8144810926 -0.4226239852 -1.0810111965
H 7.8133743442 -3.4839002509 0.6848799753
H 5.4586719288 -2.8882726134 0.5901380126
H 3.3886078277 -2.4231198910 -0.3541714566
H 1.0485692540 -1.1551308161 -0.3456174526
H 2.0908030705 3.6139460325 0.0045203007
H -3.3298089452 4.0231980438 -0.1405673059
H -5.7536586586 2.9750546315 -0.1462517964
H -4.9489491010 -1.5882063416 -0.8827158945
H -6.8682491224 -3.0817074489 -0.8601558492
H -10.5807761072 -1.6944902095 1.5543646966
H -11.3701996959 -2.7759177129 0.3828623618
H -10.9669417854 -1.1095584286 -0.0861407756
H -8.4682900975 -4.3979203503 0.1410661935
H -8.9103652333 -3.8878250964 -1.5101182912
H -10.1773575069 -4.3446082492 -0.3482663306
H -9.2717359270 0.0750893547 0.8843566913
H -7.3259562206 1.5355724338 0.8831448033
H 6.4939470399 1.1351715729 -0.5344909529
H 8.8560192639 0.5768895512 -0.4097289124
58
step=25 E=-2401.207172539850 Eh
C 10.2756563979 -3.1908616408 0.5279949827
N 9.8830696646 -1.8400731868 0.2105596628
C 10.8838726860 -0.8358342286 -0.0526596168
C 8.5463540324 -1.5101486301 0.1455102243
C 7.5382630371 -2.4629652723 0.4117700591
C 6.1951428020 -2.1206236630 0.3505261153
C 5.7750837839 -0.8269786084 0.0132574045
C 4.3423779826 -0.4925151981 -0.0555386653
C 3.2722872500 -1.3379638832 -0.2197577526
C 2.0176972082 -0.6660438311 -0.2247453457
C 2.1412778764 0.6892838425 -0.0696725219
C 1.0514700244 1.6679463666 -0.0417948832
C 1.1752835870 3.0318787090 -0.0052457644
S -0.3751469317 3.7676708991 0.0132327213
C -1.0979135087 2.1885156347 -0.0364278973
C -2.5445506277 2.0077920455 -0.0420609526
C -3.5348555447 2.9574904988 -0.0894106291
C -4.8371218922 2.3917692739 -0.0846083472
C -4.8254251433 1.0166164096 -0.0312197544
C -5.9785179037 0.1009147254 -0.0102595171
C -5.8919997468 -1.2150790302 -0.4827054777
C -6.9858368697 -2.0692477426 -0.4750068500
C -8.2418419329 -1.6390405888 0.0063694460
N -9.3358814339 -2.4756844654 0.0097326648
C -10.6080099857 -1.9934184225 0.4886696519
C -9.2011524147 -3.8366502248 -0.4485003925
C -8.3281435121 -0.3131961333 0.4864608901
C -7.2216961858 0.5235583240 0.4787965244
S -3.2065887337 0.4160271488 0.0198547251
N -0.2441645649 1.2108389714 -0.0611263262
S 3.7985623388 1.1443336277 0.1000605498
C 6.7753548845 0.1165678921 -0.2531739509
C 8.1244117541 -0.2049984887 -0.1880066024
H 9.9323558742 -3.5015988447 1.5318343994
H 11.3705532930 -3.2646762631 0.5130238406
H 9.8800685815 -3.9214711955 -0.2009568663
H 11.8820430267 -1.2768197482 0.0639975178
H 10.8105642259 0.0169960427 0.6464500057
H 10.8124092413 -0.4324486643 -1.0796289083
H 7.8026119683 -3.4854570146 0.6841928190
H 5.4492789068 -2.8841020841 0.5891743046
H 3.3830375487 -2.4154102258 -0.3550023004
H 1.0447081074 -1.1440446793 -0.3462555129
H 2.0896687702 3.6240376185 0.0054368881
H -3.3333698474 4.0303535757 -0.1399643652
H -5.7554519240 2.9782259910 -0.1457871504
H -4.9422651799 -1.5838120973 -0.8834056152
H -6.8583451470 -3.0812837402 -0.8607427301
H -10.5729984450 -1.7021832587 1.5547044388
H -11.3607165239 -2.7850011354 0.3833123311
H -10.9607234986 -1.1178378468 -0.0856521868
H -8.4558860884 -4.4015122145 0.1405453016
H -8.8994674451 -3.8920571862 -1.5104228996
H -10.1651933545 -4.3513191454 -0.3481811906
H -9.2683319640 0.0700805623 0.8845483749
H -7.3256921627 1.5345908599 0.8831198040
H 6.4949726096 1.1369999477 -0.5338304505
H 8.8558560113 0.5732203367 -0.4088569981
58
step=26 E=-2401.207172420864 Eh
C 10.2703663900 -3.1951008258 0.5285108679
N 9.8798589187 -1.8436664379 0.2112229992
C 10.8820738102 -0.8407357704 -0.0514805656
C 8.5436234886 -1.5118839234 0.1458542831
C 7.5343805149 -2.4635950674 0.4116557797
C 6.1917286662 -2.1195133584 0.3501538921
C 5.7733203749 -0.8253032729 0.0131260962
C 4.3409425746 -0.4893852556 -0.0557780683
C 3.2702858527 -1.3340252230 -0.2203641429
C 2.0161268231 -0.6612927115 -0.2253562929
C 2.1407898406 0.6938490494 -0.0699250399
C 1.0511380611 1.6726379385 -0.0419846234
C 1.1745882534 3.0366192673 -0.0049855036
S -0.3760158721 3.7720423998 0.0136908568
C -1.0982112379 2.1927134315 -0.0366439182
C -2.5447000000 2.0113667613 -0.0422874074
C -3.5354786930 2.9606030695 -0.0892536489
C -4.8372626504 2.3937931514 -0.0844692824
C -4.8246026189 1.0185956987 -0.0315297603
C -5.9769082003 0.1019110231 -0.0106539276
C -5.8895428045 -1.2139820254 -0.4832627372
C -6.9826521073 -2.0690779475 -0.4754940661
C -8.2388645081 -1.6399397108 0.0062369033
N -9.3321875933 -2.4775342657 0.0097677868
C -10.6045603264 -1.9964239893 0.4891039149
C -9.1965544591 -3.8383387443 -0.4487040732
C -8.3260836266 -0.3141944201 0.4864807218
C -7.2203256962 0.5234628139 0.4786512219
S -3.2054290183 0.4190674734 0.0192553395
N -0.2443140215 1.2152195374 -0.0615763151
S 3.7983272660 1.1478190564 0.1002264385
C 6.7747873447 0.1170777851 -0.2528571252
C 8.1234538446 -0.2061007175 -0.1874618158
H 9.9262756504 -3.5055360043 1.5321694285
H 11.3651609866 -3.2705436014 0.5138784161
H 9.8739602303 -3.9249952738 -0.2007089247
H 11.8796153966 -1.2831007579 0.0653616051
H 10.8097259941 0.0120248934 0.6478123575
H 10.8114336057 -0.4370232464 -1.0783745276
H 7.7974171631 -3.4864662107 0.6839058635
H 5.4448377750 -2.8820893018 0.5884418225
H 3.3803496231 -2.4115018457 -0.3558444365
H 1.0428019905 -1.1385417704 -0.3470852466
H 2.0888131477 3.6290226933 0.0060200773
H -3.3347286861 4.0336277550 -0.1394744856
H -5.7559969005 2.9796399359 -0.1453430310
H -4.9396314208 -1.5819651151 -0.8842196352
H -6.8544210262 -3.0809601778 -0.8613982683
H -10.5694889473 -1.7053495032 1.5551845379
H -11.3566404979 -2.7886225810 0.3838160580
H -10.9581422489 -1.1210486625 -0.0849794878
H -8.4506864309 -4.4027697054 0.1399969492
H -8.8951765597 -3.8933434360 -1.5107346027
H -10.1601747696 -4.3537503972 -0.3481552317
H -9.2664741801 0.0682916149 0.8848329232
H -7.3250926088 1.5343507565 0.8831213224
H 6.4956957227 1.1379101555 -0.5333105559
H 8.8559393039 0.5712522536 -0.4079348214
58
step=27 E=-2401.207172433762 Eh
C 10.2670562920 -3.1978308518 0.5293334663
N 9.8777407996 -1.8460197867 0.2121817902
C 10.8808423076 -0.8438547526 -0.0499571534
C 8.5417858555 -1.5131599455 0.1464430212
C 7.5317658806 -2.4642011600 0.4117011606
C 6.1893776592 -2.1191745173 0.3498984622
C 5.7720581113 -0.8245736618 0.0130932366
C 4.3399003681 -0.4877352777 -0.0560368659
C 3.2689599119 -1.3319058748 -0.2210841831
C 2.0151123364 -0.6585853661 -0.2261400609
C 2.1403260194 0.6964471150 -0.0703272169
C 1.0508352360 1.6753971723 -0.0423181339
C 1.1743269908 3.0393641441 -0.0047753397
S -0.3763056562 3.7747489585 0.0141631508
C -1.0984200492 2.1954688225 -0.0369977576
C -2.5448549542 2.0139019466 -0.0426373100
C -3.5359131489 2.9628700993 -0.0891264462
C -4.8374515945 2.3954887628 -0.0843564519
C -4.8241968419 1.0202667165 -0.0319587285
C -5.9760797195 0.1030586090 -0.0111721722
C -5.8882290894 -1.2127282651 -0.4839893628
C -6.9809635390 -2.0682992104 -0.4761027094
C -8.2372514034 -1.6398561766 0.0060304902
N -9.3301271309 -2.4780332028 0.0097604684
C -10.6025528482 -1.9976153535 0.4895818191
C -9.1940557770 -3.8387004804 -0.4490044500
C -8.3249842434 -0.3142071248 0.4864553462
C -7.2196016428 0.5239363215 0.4784128522
S -3.2048326688 0.4213023163 0.0184754470
N -0.2445767308 1.2179440399 -0.0622158762
S 3.7979939167 1.1496702492 0.1003804685
C 6.7743162908 0.1171008506 -0.2523678001
C 8.1227585637 -0.2069625786 -0.1866818845
H 9.9223603645 -3.5081917257 1.5328043069
H 11.3617968974 -3.2741697298 0.5150598632
H 9.8703360828 -3.9272749030 -0.2001625100
H 11.8779884876 -1.2870579566 0.0671156190
H 10.8089639305 0.0087937951 0.6495195041
H 10.8108561556 -0.4398496919 -1.0767783450
H 7.7939864667 -3.4873170590 0.6837866684
H 5.4418431555 -2.8812412723 0.5877810088
H 3.3786227301 -2.4093878507 -0.3568096065
H 1.0415971399 -1.1353506665 -0.3481573145
H 2.0885451121 3.6317725963 0.0066159881
H -3.3355821118 4.0359916840 -0.1389494203
H -5.7563992774 2.9810360693 -0.1448532840
H -4.9382757195 -1.5802838936 -0.8852365556
H -6.8523653774 -3.0800637663 -0.8621976675
H -10.5672600709 -1.7067403803 1.5557136021
H -11.3543073560 -2.7901423364 0.3843860810
H -10.9567116666 -1.1222972308 -0.0842208902
H -8.4477376294 -4.4029600383 0.1392926255
H -8.8930630614 -3.8933700951 -1.5111620256
H -10.1574150275 -4.3545462928 -0.3481907010
H -9.2654390582 0.0677987631 0.8851085051
H -7.3247731307 1.5347122288 0.8830454789
H 6.4960292160 1.1382023183 -0.5326218940
H 8.8558917520 0.5699045185 -0.4067269532
58
step=28 E=-2401.207172540052 Eh
C 10.2659081775 -3.1988423245 0.5298202486
N 9.8769721541 -1.8469050492 0.2127354736
C 10.8803357373 -0.8449363826 -0.0491146008
C 8.5411032302 -1.5137270550 0.1468018283
C 7.5308227142 -2.4645692991 0.4117672633
C 6.1885365352 -2.1191902181 0.3497789312
C 5.7715681101 -0.8244461414 0.0130854864
C 4.3394904914 -0.4872831051 -0.0561906266
C 3.2684035064 -1.3312144405 -0.2214958647
C 2.0146732691 -0.6576767283 -0.2266009891
C 2.1401407324 0.6973044811 -0.0705769625
C 1.0507302977 1.6763389192 -0.0425270925
C 1.1742629221 3.0402934140 -0.0046825779
S -0.3763641395 3.7757084384 0.0143991895
C -1.0984757055 2.1964729660 -0.0372115480
C -2.5449011648 2.0148795263 -0.0428440317
C -3.5360165746 2.9637939766 -0.0890671439
C -4.8374894394 2.3962482780 -0.0843015761
C -4.8240749149 1.0210137400 -0.0322015681
C -5.9758394688 0.1036567621 -0.0114588261
C -5.8878865371 -1.2120862016 -0.4843854760
C -6.9804999370 -2.0678111981 -0.4764436935
C -8.2367766539 -1.6395929919 0.0059109220
N -9.3295150794 -2.4779461251 0.0097588030
C -10.6019247203 -1.9977682449 0.4898457431
C -9.1933513668 -3.8385509038 -0.4491672498
C -8.3246247318 -0.3139840730 0.4864296537
C -7.2193665595 0.5243210307 0.4782819409
S -3.2046600190 0.4221889515 0.0180309264
N -0.2446797572 1.2189029715 -0.0625909947
S 3.7978667821 1.1501910941 0.1004424057
C 6.7740956474 0.1170123202 -0.2520948037
C 8.1224496272 -0.2073849280 -0.1862249166
H 9.9209493911 -3.5092252486 1.5331926013
H 11.3606334723 -3.2754496927 0.5157377701
H 9.8691582694 -3.9281248121 -0.1998200834
H 11.8773647209 -1.2883748444 0.0680730055
H 10.8085347611 0.0076402729 0.6504580112
H 10.8106046949 -0.4407928584 -1.0758976935
H 7.7927469207 -3.4877793169 0.6837726035
H 5.4407705425 -2.8810943839 0.5874422852
H 3.3778969306 -2.4086931656 -0.3573546253
H 1.0410800424 -1.1342341245 -0.3487824313
H 2.0884906206 3.6326823046 0.0069198666
H -3.3357985861 4.0369460675 -0.1386715794
H -5.7564865091 2.9817379117 -0.1445880725
H -4.9379496203 -1.5795103684 -0.8857897917
H -6.8518142460 -3.0795262002 -0.8626427928
H -10.5664827014 -1.7070058709 1.5560049432
H -11.3535861457 -2.7903921509 0.3846992425
H -10.9563054822 -1.1224423016 -0.0838037471
H -8.4468489347 -4.4027939551 0.1389129604
H -8.8925717669 -3.8930699139 -1.5113932343
H -10.1566237423 -4.3545297179 -0.3482115415
H -9.2650729382 0.0678640189 0.8852450864
H -7.3246479504 1.5350487353 0.8830025688
H 6.4961015614 1.1382209121 -0.5322490492
H 8.8558180293 0.5693257994 -0.4060360418
