68
0 1 Before single point calculation
C 8.854827131 -0.681061132 0.261167860
N 7.580739492 -1.384386343 0.402101657
C 7.675700361 -2.603779015 1.215172682
C 6.358573573 -0.731040026 0.159990902
C 6.278932245 0.653968062 0.270539083
C 5.078200865 1.324636549 0.174535266
C 3.878115957 0.660598447 -0.047701039
C 2.627512293 1.385847468 -0.085436606
C 2.487268543 2.726011100 -0.110601494
C 1.214334816 3.426317166 -0.130531019
C 1.187901340 4.820989419 -0.214989676
C -0.009034097 5.503571983 -0.236530462
C -1.203023180 4.818200653 -0.175368653
C -1.223470094 3.423482476 -0.089989736
C -2.493471353 2.720344243 -0.026955561
C -2.628084076 1.380024165 0.012482618
C -3.872289878 0.647769794 0.088331241
C -5.079036586 1.314055285 0.262592743
C -6.281766935 0.644576667 0.337132451
C -6.359606617 -0.741079344 0.238571839
N -7.616953079 -1.371355699 0.200592216
C -7.933854013 -2.444041659 -0.751287535
C -8.802258435 -0.728030785 0.765244866
C -5.129912139 -1.480694157 0.135066068
C -5.114457348 -2.887056290 0.197774984
C -3.952581716 -3.592837190 0.075875345
C -2.745843840 -2.922140947 -0.103256507
C -2.714334467 -1.557733191 -0.123034523
C -3.892772372 -0.790006457 0.022967730
C -0.003047140 2.750718125 -0.066616030
C 3.914484476 -0.765636295 -0.236223265
C 2.756045597 -1.515347074 -0.543477460
C 2.819829161 -2.856662221 -0.788108989
C 4.045126008 -3.517047196 -0.757699969
C 5.185132838 -2.828294625 -0.459146207
C 5.155552033 -1.453324531 -0.158334363
H 9.054953149 -0.079992171 1.146545745
H 9.667303822 -1.394415757 0.132898620
H 8.831681280 -0.032482401 -0.612895393
H 6.704687411 -2.864708059 1.632226455
H 8.046037001 -3.433006975 0.615059765
H 8.362233425 -2.446511478 2.045298816
H 7.173712864 1.208357086 0.491917962
H 5.072060129 2.390900927 0.312915422
H 1.732294510 0.797009662 -0.080581364
H 3.367318562 3.341062728 -0.137151807
H 2.118154449 5.360879610 -0.264335186
H -0.011359191 6.579477059 -0.302180269
H -2.135610985 5.355963690 -0.193428213
H -3.374862513 3.333896517 -0.024491471
H -1.729701553 0.796937306 -0.009525619
H -5.082792286 2.386280235 0.340828822
H -7.192400020 1.209205298 0.431813800
H -7.101469892 -2.612347179 -1.432250574
H -8.160085728 -3.367755600 -0.221598723
H -8.801416657 -2.168898033 -1.348585949
H -9.571989184 -1.469872548 0.971584796
H -9.202873828 0.005579962 0.067814707
H -8.550691137 -0.231085625 1.700596267
H -6.032960142 -3.411392271 0.387311538
H -3.965621948 -4.669696584 0.122810295
H -1.832875682 -3.485159830 -0.211737251
H -1.767074098 -1.068637555 -0.255416092
H -0.000259339 1.682165480 0.011237539
H 1.802049621 -1.025515829 -0.609176975
H 1.922867137 -3.405820795 -1.025036147
H 4.091984446 -4.570449109 -0.981735140
H 6.132217710 -3.334411525 -0.496339691
