20
0 1 Before single point calculation
N 1.608785124 0.000066369 -0.140237236
C 0.231782942 0.000305282 -0.052539099
C -0.497737481 1.196697611 -0.024803532
C -0.497458213 -1.196295521 -0.025781483
C 2.331275280 1.231951961 0.066817028
C 2.330198330 -1.232469366 0.068450424
C -1.877805677 1.189932860 0.016157199
C -1.877510954 -1.189987111 0.015589158
C -2.583597048 -0.000103211 0.036742418
H 0.008553923 2.147945698 -0.034506790
H 0.008919858 -2.147498820 -0.037681600
H 2.055661687 1.964178827 -0.694678635
H 3.398554914 1.043685327 -0.026599622
H 2.142244271 1.666798878 1.056415696
H 2.131691017 -1.671470289 1.054439311
H 2.062166284 -1.961643654 -0.699039489
H 3.398238490 -1.042957351 -0.013619058
H -2.407412734 2.132018543 0.037614172
H -2.407025153 -2.132160353 0.035497534
H -3.662367600 -0.000207983 0.071801203
20
step=1 E=-365.856964156880 Eh
N 1.6087851411 0.0000663694 -0.1402372315
C 0.2317829416 0.0003052823 -0.0525391001
C -0.4977374805 1.1966975905 -0.0248035307
C -0.4974581807 -1.1962954899 -0.0257814820
C 2.3312752535 1.2319519690 0.0668170315
C 2.3301983196 -1.2324693085 0.0684504216
C -1.8778055528 1.1899328431 0.0161571984
C -1.8775109228 -1.1899870414 0.0155891585
C -2.5835969914 -0.0001032107 0.0367424195
H 0.0085539221 2.1479455712 -0.0345067887
H 0.0089198587 -2.1474987922 -0.0376815979
H 2.0556616589 1.9641787727 -0.6946785796
H 3.3985548734 1.0436853385 -0.0265996217
H 2.1422443217 1.6667988811 1.0564156594
H 2.1316910623 -1.6714702829 1.0544392725
H 2.0621661834 -1.9616435799 -0.6990394390
H 3.3982384307 -1.0429573282 -0.0136190582
H -2.4074127202 2.1320185119 0.0376141702
H -2.4070251720 -2.1321601991 0.0354975301
H -3.6623675939 -0.0002079825 0.0718011982
20
step=2 E=-365.858631496619 Eh
N 1.6257246945 -0.0093855164 -0.1424863010
C 0.2420867987 -0.0066201110 -0.0691696583
C -0.4839184431 1.2048963000 -0.0306334895
C -0.4950317216 -1.2114574935 -0.0309196101
C 2.3177936638 1.2443321247 0.0673536755
C 2.3441899382 -1.2483878911 0.0670127495
C -1.8763122553 1.1955366366 0.0190645822
C -1.8872795161 -1.1890237006 0.0187115597
C -2.6052187546 0.0065847017 0.0417424597
H 0.0367696528 2.1645719866 -0.0405932636
H 0.0166415592 -2.1759550176 -0.0418787457
H 2.0412538002 1.9899352885 -0.6963568592
H 3.3994826388 1.0776415443 -0.0180381052
H 2.1154104090 1.6886650599 1.0619544721
H 2.1453043811 -1.7002817391 1.0588004787
H 2.0891950417 -1.9975429449 -0.7008574902
H 3.4223921588 -1.0572293031 -0.0104217888
H -2.4053097165 2.1538195853 0.0438230077
H -2.4252154010 -2.1423279433 0.0429836870
H -3.6982159256 0.0116175082 0.0820552458
20
step=3 E=-365.857512169440 Eh
N 1.6216720497 0.0314147344 -0.1240444062
C 0.2342596830 0.0336575616 -0.0621726987
C -0.5295662822 1.2249016962 -0.0198047351
C -0.4823125966 -1.1861851965 -0.0314809769
C 2.3974595034 1.2370171646 0.0615127534
C 2.2964775280 -1.2300020324 0.0764516238
C -1.9235000712 1.1960559851 0.0236684266
C -1.8758964793 -1.2190980843 0.0121437969
C -2.6001577144 -0.0254021189 0.0371866038
H -0.0305402097 2.1984002879 -0.0237531249
H 0.0597610991 -2.1371723412 -0.0458084799
H 2.1615559532 1.9957766933 -0.7062887825
H 3.4674037447 0.9977250154 -0.0392064329
H 2.2419325908 1.7069168027 1.0558520714
H 2.0927511134 -1.6796802661 1.0714035896
H 2.0081047557 -1.9726426614 -0.6897385622
H 3.3828032861 -1.0764583185 -0.0129084617
H -2.4805084834 2.1425434926 0.0505280188
H -2.3930362620 -2.1881586669 0.0297481455
H -3.6956818445 -0.0471805737 0.0729772050
20
step=4 E=-365.858688500079 Eh
N 1.6233583980 0.0101847541 -0.1403283702
C 0.2379222374 0.0146228119 -0.0681986738
C -0.5079087816 1.2149277312 -0.0275988785
C -0.4885627509 -1.1971107670 -0.0326934002
C 2.3572980554 1.2388200659 0.0643708502
C 2.3189605859 -1.2386073704 0.0710879448
C -1.9000067369 1.1953533400 0.0210873856
C -1.8806003667 -1.2030169785 0.0159899505
C -2.6021117340 -0.0096223550 0.0405691706
H 0.0005381868 2.1811148584 -0.0353880620
H 0.0377131162 -2.1542383723 -0.0454232068
H 2.1020452698 1.9931840584 -0.6988539521
H 3.4334807016 1.0360940430 -0.0268747605
H 2.1753687156 1.6912318425 1.0601059996
H 2.1133360626 -1.6855052289 1.0646610939
H 2.0496787180 -1.9854534317 -0.6951368989
H 3.4012408774 -1.0665129792 -0.0082567131
H -2.4430776441 2.1468968232 0.0474053231
H -2.4073336001 -2.1638095766 0.0380084514
H -3.6953764751 -0.0185492622 0.0801763414
20
step=5 E=-365.858853190104 Eh
N 1.6222322197 0.0024476774 -0.1399019166
C 0.2372412661 0.0009604331 -0.0677363574
C -0.4964578203 1.2069606051 -0.0282498287
C -0.4947513345 -1.2064944190 -0.0315563184
C 2.3383807231 1.2399162312 0.0658298423
C 2.3310851818 -1.2383612431 0.0696294237
C -1.8875956816 1.1979246499 0.0203701736
C -1.8858375562 -1.2001943285 0.0170450052
C -2.5971638135 -0.0016349426 0.0407449805
H 0.0203006248 2.1681965749 -0.0369407339
H 0.0241355699 -2.1665762375 -0.0436861451
H 2.0729596868 1.9903122615 -0.6973797456
H 3.4169984059 1.0525517012 -0.0244467127
H 2.1491617560 1.6893283450 1.0611963440
H 2.1308162287 -1.6885471356 1.0624167000
H 2.0694751810 -1.9866148841 -0.6971613288
H 3.4111293615 -1.0548881533 -0.0100610412
H -2.4234416179 2.1526906363 0.0459240509
H -2.4202015521 -2.1558579329 0.0397483610
H -3.6897727840 -0.0024315788 0.0803368958
20
step=6 E=-365.858818938070 Eh
N 1.6267925166 -0.0009199551 -0.1306005094
C 0.2422243759 0.0009224758 -0.0613963343
C -0.4920787269 1.2047589153 -0.0248872783
C -0.4905446158 -1.2039553732 -0.0278742513
C 2.3366881080 1.2395448615 0.0669842811
C 2.3393981957 -1.2401467407 0.0697924035
C -1.8823937612 1.1910309325 0.0198009656
C -1.8809114759 -1.1896239009 0.0168873486
C -2.6040037073 0.0002550824 0.0398530258
H 0.0229234892 2.1657131250 -0.0342148581
H 0.0249332607 -2.1644852741 -0.0402494641
H 2.0634198405 1.9843883004 -0.6979207005
H 3.4151205918 1.0586422812 -0.0274031174
H 2.1493233509 1.6925837149 1.0603762591
H 2.1461737446 -1.6948014280 1.0612493710
H 2.0734270978 -1.9850444781 -0.6976819235
H 3.4181402792 -1.0567328522 -0.0164454987
H -2.4145103983 2.1460497877 0.0434757270
H -2.4126446166 -2.1448919215 0.0380670295
H -3.6957679614 -0.0004464682 0.0773327961
20
step=7 E=-365.858909974970 Eh
N 1.6273538475 -0.0009861893 -0.1264075330
C 0.2426589256 0.0001162875 -0.0590222769
C -0.4897514714 1.2059798007 -0.0234056389
C -0.4902246385 -1.2054458343 -0.0263140791
C 2.3367926942 1.2405376014 0.0673012349
C 2.3403941498 -1.2404937013 0.0699926166
C -1.8804715215 1.1962556874 0.0200018048
C -1.8809490894 -1.1960913510 0.0171552797
C -2.5944001198 0.0001861308 0.0393892825
H 0.0276590297 2.1659653064 -0.0328589863
H 0.0269639152 -2.1654807363 -0.0386434238
H 2.0609419367 1.9845465280 -0.6979256445
H 3.4154749968 1.0609317168 -0.0296211429
H 2.1516687783 1.6955801730 1.0605002218
H 2.1499217779 -1.6973851200 1.0612540463
H 2.0727388163 -1.9846929270 -0.6980457515
H 3.4191503884 -1.0570601337 -0.0188024182
H -2.4141980203 2.1509793919 0.0431803794
H -2.4148040605 -2.1508097796 0.0379208670
H -3.6863530017 0.0002938649 0.0760298357
20
step=8 E=-365.858921511361 Eh
N 1.6286227743 0.0019293825 -0.1175671025
C 0.2437788056 -0.0024418073 -0.0544787747
C -0.4870862921 1.2047524655 -0.0195941122
C -0.4882857071 -1.2091722958 -0.0235184692
C 2.3445048840 1.2411193350 0.0669677027
C 2.3425138242 -1.2377021943 0.0708214955
C -1.8781536610 1.1961869415 0.0208644919
C -1.8792871941 -1.1976429716 0.0170217094
C -2.5917946698 -0.0003876275 0.0379454529
H 0.0314763338 2.1643920964 -0.0271803013
H 0.0285922666 -2.1696706015 -0.0347197023
H 2.0682938919 1.9835909177 -0.6999533878
H 3.4221864946 1.0564307055 -0.0345235789
H 2.1665582623 1.7013569366 1.0592334642
H 2.1573540868 -1.6983706536 1.0614835293
H 2.0719291722 -1.9797424406 -0.6986073736
H 3.4208183062 -1.0526003289 -0.0225516833
H -2.4117540744 2.1513478496 0.0434238891
H -2.4144173576 -2.1520088563 0.0363999534
H -3.6840705076 0.0001307460 0.0721667557
20
step=9 E=-365.858950850539 Eh
N 1.6352703424 0.0001719223 -0.1042904432
C 0.2507241350 -0.0012480907 -0.0471421286
C -0.4815205956 1.2053393084 -0.0143679549
C -0.4823695694 -1.2074562208 -0.0177342545
C 2.3502370003 1.2411287173 0.0674433342
C 2.3500865909 -1.2403771531 0.0705009616
C -1.8726852859 1.1972917908 0.0216979392
C -1.8735427969 -1.1972970356 0.0183873330
C -2.5857242724 0.0002201721 0.0364789824
H 0.0369726151 2.1649990653 -0.0199030241
H 0.0345999119 -2.1678930197 -0.0262940470
H 2.0693671468 1.9785138102 -0.7029299714
H 3.4276026248 1.0568594884 -0.0382056509
H 2.1771678491 1.7081282043 1.0573804104
H 2.1720082940 -1.7077103232 1.0593066995
H 2.0742298148 -1.9777275286 -0.7017663154
H 3.4278009782 -1.0548067469 -0.0290345751
H -2.4065277913 2.1524286906 0.0425755206
H -2.4084217209 -2.1519052160 0.0365005274
H -3.6781074925 0.0005662308 0.0671796465
20
step=10 E=-365.858970296133 Eh
N 1.6439949901 -0.0009881963 -0.0870139507
C 0.2605019349 0.0006868007 -0.0362467157
C -0.4713357617 1.2075442811 -0.0066838222
C -0.4730961287 -1.2051350576 -0.0092742971
C 2.3591319009 1.2415204971 0.0676931518
C 2.3585679878 -1.2435922539 0.0696426674
C -1.8623456991 1.1962373980 0.0234830555
C -1.8641674039 -1.1970232598 0.0209678714
C -2.5766851489 0.0000585411 0.0354913883
H 0.0463147653 2.1675555569 -0.0092017356
H 0.0446351628 -2.1650988880 -0.0141229071
H 2.0735753279 1.9710657118 -0.7084533245
H 3.4359419211 1.0567837742 -0.0412424427
H 2.1911932922 1.7181458700 1.0536396783
H 2.1872658029 -1.7202047869 1.0549684596
H 2.0755460843 -1.9730562187 -0.7075691380
H 3.4357558456 -1.0589341047 -0.0356060114
H -2.3967263775 2.1508670452 0.0420613877
H -2.3982055540 -2.1519248288 0.0373848430
H -3.6690076178 0.0007093256 0.0615098115
20
step=11 E=-365.858971446085 Eh
N 1.6581968954 -0.0037280312 -0.0623199763
C 0.2757303612 -0.0008412988 -0.0203202722
C -0.4585671036 1.2048924109 0.0046754805
C -0.4573565094 -1.2069514120 0.0034962701
C 2.3722817045 1.2415367496 0.0680802124
C 2.3755153549 -1.2472934088 0.0678243241
C -1.8495802471 1.1996571779 0.0270018777
C -1.8483571033 -1.1927765451 0.0258479120
C -2.5629790336 0.0031592560 0.0353118241
H 0.0601240972 2.1641652297 0.0062915691
H 0.0590224591 -2.1676017221 0.0041567865
H 2.0812595192 1.9586547574 -0.7177586158
H 3.4487746003 1.0565563817 -0.0426356017
H 2.2088830797 1.7327677906 1.0472616765
H 2.2127524548 -1.7393571556 1.0466951834
H 2.0866993741 -1.9649077175 -0.7183999227
H 3.4516655747 -1.0599210774 -0.0422399560
H -2.3825439533 2.1550744169 0.0423111836
H -2.3836277171 -2.1468248763 0.0402105451
H -3.6553006510 0.0028817938 0.0548865782
20
step=12 E=-365.858990554634 Eh
N 1.6599062866 -0.0021415773 -0.0615561545
C 0.2770398632 -0.0001815876 -0.0195132109
C -0.4561289096 1.2061592854 0.0054569011
C -0.4577709358 -1.2055786510 0.0045283612
C 2.3773968087 1.2415215731 0.0678452332
C 2.3768985505 -1.2462037380 0.0674145383
C -1.8472905285 1.1973513605 0.0283470451
C -1.8489418959 -1.1951168674 0.0274058657
C -2.5623489437 0.0016002269 0.0369256239
H 0.0619796586 2.1658679341 0.0068465671
H 0.0590662068 -2.1659388647 0.0051469653
H 2.0907401968 1.9579752601 -0.7203399765
H 3.4536796996 1.0528772441 -0.0393246966
H 2.2127244885 1.7352176751 1.0455965710
H 2.2113619317 -1.7405293514 1.0447054131
H 2.0906480407 -1.9621220421 -0.7214065933
H 3.4533507704 -1.0580143279 -0.0388809630
H -2.3808442989 2.1525234362 0.0437023850
H -2.3837215674 -2.1496171597 0.0419775973
H -3.6547809103 0.0023596257 0.0567117292
20
step=13 E=-365.858999996292 Eh
N 1.6627916155 -0.0013164511 -0.0592281151
C 0.2801224690 0.0000062928 -0.0170325643
C -0.4516667751 1.2072122361 0.0076203317
C -0.4537418344 -1.2059967332 0.0067638837
C 2.3818105120 1.2420669552 0.0672852421
C 2.3783640379 -1.2466957458 0.0667241942
C -1.8428191557 1.1970617096 0.0312339335
C -1.8448622946 -1.1959034425 0.0303701532
C -2.5576897516 0.0011711502 0.0403198247
H 0.0665876244 2.1669736476 0.0081257508
H 0.0637902483 -2.1661582074 0.0065283810
H 2.1004793669 1.9554739655 -0.7257739067
H 3.4582982695 1.0511015801 -0.0330478364
H 2.2127982493 1.7406854541 1.0417452354
H 2.2077333239 -1.7454178117 1.0408509002
H 2.0951574196 -1.9588645922 -0.7268083055
H 3.4554057517 -1.0586778998 -0.0332503652
H -2.3767628430 2.1520253945 0.0464949846
H -2.3796575947 -2.1504198391 0.0449123791
H -3.6501474243 0.0020379004 0.0604515304
20
step=14 E=-365.859019320511 Eh
N 1.6742710276 -0.0013780559 -0.0490848428
C 0.2918306552 -0.0005417288 -0.0080037295
C -0.4385547602 1.2075486685 0.0149097450
C -0.4421459619 -1.2065900680 0.0149294446
C 2.3946103716 1.2424934066 0.0660222504
C 2.3893292388 -1.2483523065 0.0640352384
C -1.8297339660 1.1972464710 0.0393171032
C -1.8332537207 -1.1960212000 0.0393334117
C -2.5451849188 0.0016571387 0.0496393208
H 0.0803621997 2.1670460368 0.0133141573
H 0.0754309969 -2.1668139585 0.0134022763
H 2.1250904877 1.9447104309 -0.7415073974
H 3.4718950057 1.0477383565 -0.0161435163
H 2.2135940503 1.7559953747 1.0303087692
H 2.2075051887 -1.7619860156 1.0281181534
H 2.1154900477 -1.9485787724 -0.7437734332
H 3.4672876560 -1.0579954168 -0.0194822501
H -2.3634489606 2.1523699872 0.0536492668
H -2.3686240857 -2.1502473138 0.0537239086
H -3.6376654173 0.0031567281 0.0700375797
20
step=15 E=-365.859044149892 Eh
N 1.6902938607 -0.0030289151 -0.0337547552
C 0.3084187021 -0.0012960174 0.0047670821
C -0.4210693696 1.2074332579 0.0253734910
C -0.4261479814 -1.2070557870 0.0262715358
C 2.4101613029 1.2425309875 0.0630267495
C 2.4048803538 -1.2517696977 0.0593783862
C -1.8122159043 1.1987018603 0.0507789975
C -1.8171919611 -1.1947576484 0.0516174188
C -2.5282805177 0.0034682176 0.0625884008
H 0.0989314821 2.1663631617 0.0208670243
H 0.0907595453 -2.1676619046 0.0227183670
H 2.1552511579 1.9274782711 -0.7645242564
H 3.4884354164 1.0450424058 0.0052997447
H 2.2129422416 1.7774008672 1.0120412155
H 2.2092021377 -1.7866725161 1.0087339547
H 2.1432936807 -1.9346406719 -0.7677630394
H 3.4837578896 -1.0589434503 -0.0026515833
H -2.3451923145 2.1542651592 0.0639113657
H -2.3535070482 -2.1484595571 0.0655413727
H -3.6207436484 0.0056561243 0.0834516085
20
step=16 E=-365.859069381501 Eh
N 1.7115718031 -0.0061933280 -0.0096660080
C 0.3305368173 -0.0022624775 0.0236214705
C -0.3980862984 1.2071706480 0.0404971306
C -0.4056465309 -1.2071243859 0.0424376258
C 2.4298775647 1.2416791823 0.0560265026
C 2.4260899961 -1.2565260796 0.0502560951
C -1.7891431700 1.2010550739 0.0660223789
C -1.7966197060 -1.1924700777 0.0678406063
C -2.5064104065 0.0065453132 0.0791773517
H 0.1234257344 2.1652252679 0.0326281279
H 0.1098970390 -2.1684090849 0.0366826042
H 2.1913718996 1.9000411732 -0.7984417278
H 3.5089878231 1.0426968721 0.0283584896
H 2.2137769534 1.8069762269 0.9824244630
H 2.2152653799 -1.8219271207 0.9778990395
H 2.1786387133 -1.9131906621 -0.8028540204
H 3.5056658232 -1.0613731420 0.0141692187
H -2.3208437555 2.1573462648 0.0771393320
H -2.3342785985 -2.1454050454 0.0806000990
H -3.5988246363 0.0099362415 0.0998406724
20
step=17 E=-365.859074860011 Eh
N 1.7118803631 -0.0058344756 -0.0065969163
C 0.3308071933 -0.0018150336 0.0260422490
C -0.3986965451 1.2071062578 0.0422692975
C -0.4052578912 -1.2066802722 0.0441731747
C 2.4321826874 1.2410546813 0.0517937686
C 2.4264056542 -1.2564138596 0.0460063711
C -1.7896920051 1.2013700632 0.0683521364
C -1.7962194514 -1.1920491477 0.0701240066
C -2.5065087647 0.0066311723 0.0820687412
H 0.1225715962 2.1652227082 0.0331733933
H 0.1102384414 -2.1679249760 0.0372670789
H 2.1964423950 1.8950000452 -0.8069570567
H 3.5110104429 1.0399903809 0.0278386367
H 2.2152944212 1.8120217323 0.9743159513
H 2.2134820317 -1.8273241612 0.9695983603
H 2.1811167976 -1.9081520645 -0.8116000119
H 3.5060850819 -1.0610229224 0.0139805278
H -2.3214701351 2.1576059513 0.0792044862
H -2.3336439396 -2.1450924122 0.0825748754
H -3.5988848591 0.0096438282 0.1032104514
20
step=18 E=-365.859087820965 Eh
N 1.7128375297 -0.0068740882 0.0087428989
C 0.3319738308 -0.0019719344 0.0361605720
C -0.3976092649 1.2070525343 0.0498884538
C -0.4048627529 -1.2063916353 0.0512272206
C 2.4341489991 1.2401385823 0.0362344929
C 2.4279755449 -1.2576930630 0.0306693575
C -1.7886310921 1.2024841839 0.0750665562
C -1.7959488445 -1.1908744869 0.0763559715
C -2.5060040616 0.0079857023 0.0887260088
H 0.1242169246 2.1648544174 0.0392530981
H 0.1101452606 -2.1678989453 0.0424313122
H 2.1996511778 1.8759863191 -0.8368412598
H 3.5129261089 1.0378774920 0.0189744517
H 2.2172002124 1.8313544759 0.9454290056
H 2.2143200588 -1.8488888173 0.9407648614
H 2.1844348869 -1.8912433839 -0.8414491331
H 3.5076591424 -1.0610915701 0.0056880935
H -2.3198891007 2.1590543288 0.0845939021
H -2.3337903550 -2.1437249761 0.0870434507
H -3.5984147768 0.0114526886 0.1092243791
20
step=19 E=-365.859090436555 Eh
N 1.6955990319 -0.0058274733 0.0154973386
C 0.3145291964 -0.0012576570 0.0390651299
C -0.4153945541 1.2075498108 0.0522739020
C -0.4217997514 -1.2059185440 0.0514723821
C 2.4196484489 1.2398765328 0.0117648225
C 2.4101636000 -1.2570822699 0.0085003006
C -1.8064027390 1.2024580083 0.0776242131
C -1.8129355184 -1.1908366730 0.0768710587
C -2.5234312746 0.0077118893 0.0908677213
H 0.1060941127 2.1655125282 0.0412756770
H 0.0936555077 -2.1671815847 0.0403209403
H 2.1796945716 1.8606650980 -0.8709521674
H 3.4979061820 1.0351612849 -0.0091346972
H 2.2110850073 1.8476769200 0.9115827539
H 2.1998319018 -1.8643356808 0.9083207908
H 2.1630748987 -1.8750236928 -0.8741726075
H 3.4898320284 -1.0604157708 -0.0159773837
H -2.3379979832 2.1588355115 0.0872395111
H -2.3504257699 -2.1438904631 0.0858886348
H -3.6158434092 0.0108696947 0.1117379835
20
step=20 E=-365.859091147797 Eh
N 1.6795840657 -0.0056167643 0.0149819495
C 0.2983999922 -0.0012081559 0.0381724500
C -0.4308230919 1.2079552240 0.0521666560
C -0.4377284179 -1.2060380804 0.0497671421
C 2.4032329041 1.2404605164 -0.0033177610
C 2.3932491200 -1.2574014504 -0.0048725689
C -1.8218357090 1.2022690404 0.0784549602
C -1.8287995273 -1.1911230349 0.0761210781
C -2.5389765761 0.0075967305 0.0914142010
H 0.0906773063 2.1659492577 0.0417431990
H 0.0779040651 -2.1672297296 0.0375527086
H 2.1606155182 1.8527874215 -0.8913783854
H 3.4814683097 1.0358504757 -0.0247355060
H 2.1967614194 1.8564456479 0.8912663972
H 2.1825355707 -1.8725258302 0.8893096787
H 2.1453205034 -1.8670159305 -0.8933352416
H 3.4730061084 -1.0611607638 -0.0270825464
H -2.3535462457 2.1585651776 0.0889511650
H -2.3663720297 -2.1441361963 0.0846965221
H -3.6313800402 0.0108868350 0.1129153286
20
step=21 E=-365.859087838407 Eh
N 1.6384179208 -0.0040210501 0.0007093138
C 0.2569839439 -0.0008512869 0.0278509386
C -0.4713443723 1.2086437511 0.0452373580
C -0.4783040312 -1.2063116356 0.0402104314
C 2.3630477581 1.2419583202 -0.0237040443
C 2.3511800766 -1.2566737461 -0.0223090492
C -1.8623763775 1.2010246253 0.0744677945
C -1.8692124970 -1.1925936733 0.0695186729
C -2.5792269116 0.0062238020 0.0872090124
H 0.0496626338 2.1669991207 0.0366446024
H 0.0379859746 -2.1671903730 0.0270380233
H 2.1157151513 1.8522194897 -0.9118802647
H 3.4408624952 1.0359745572 -0.0510260775
H 2.1621386312 1.8596397312 0.8709763741
H 2.1408124454 -1.8730053309 0.8710419143
H 2.1014779842 -1.8640028146 -0.9119632587
H 3.4309652902 -1.0607347685 -0.0448326460
H -2.3947204146 2.1569280767 0.0876744685
H -2.4064888413 -2.1457907062 0.0786400642
H -3.6716128610 0.0092493058 0.1106028439
20
step=22 E=-365.859090316061 Eh
N 1.6382549530 -0.0052438212 0.0007719024
C 0.2570979771 -0.0014738586 0.0278993573
C -0.4707688564 1.2083210916 0.0452596631
C -0.4787912039 -1.2065793713 0.0402712283
C 2.3604878982 1.2419612298 -0.0235463551
C 2.3517998745 -1.2573533583 -0.0222477096
C -1.8617840669 1.2015026053 0.0744591332
C -1.8696808489 -1.1921383777 0.0695467605
C -2.5791479035 0.0070155016 0.0871952219
H 0.0507458795 2.1664002549 0.0366791760
H 0.0370116106 -2.1677050043 0.0271519050
H 2.1120531585 1.8518033285 -0.9117198331
H 3.4386796999 1.0380061757 -0.0507794642
H 2.1583599831 1.8592440187 0.8711230126
H 2.1417810786 -1.8738744712 0.8710551468
H 2.1025371259 -1.8648166673 -0.9119247906
H 3.4314693530 -1.0607843912 -0.0446946586
H -2.3936482336 2.1576730303 0.0876424893
H -2.4074260147 -2.1450678766 0.0786787198
H -3.6715224971 0.0105257206 0.1105526700
20
step=23 E=-365.859089780664 Eh
N 1.6012799223 -0.0054421207 -0.0129559413
C 0.2204829813 -0.0016809349 0.0182078463
C -0.5070174084 1.2082680202 0.0383106576
C -0.5154669499 -1.2068131850 0.0319250511
C 2.3220244072 1.2426109034 -0.0386368768
C 2.3147959170 -1.2575729438 -0.0360051854
C -1.8979772991 1.2014185614 0.0711422616
C -1.9062268963 -1.1922803563 0.0648287176
C -2.6154435925 0.0070338598 0.0848761991
H 0.0146625849 2.1662877857 0.0296606258
H 0.0002793914 -2.1679636009 0.0173361823
H 2.0711953239 1.8517420048 -0.9266374842
H 3.4003922218 1.0399581657 -0.0676227468
H 2.1205967393 1.8599201644 0.8561714554
H 2.1030528040 -1.8748070272 0.8563658023
H 2.0668817524 -1.8641348993 -0.9267072341
H 3.3945011644 -1.0610898464 -0.0561503674
H -2.4297091498 2.1576296980 0.0864567769
H -2.4441152442 -2.1451274494 0.0749304341
H -3.7077545938 0.0106133725 0.1107984257
20
step=24 E=-365.859090948910 Eh
N 1.5843926684 -0.0057649382 -0.0184307113
C 0.2038464164 -0.0016480183 0.0143574448
C -0.5242057771 1.2080598669 0.0352580211
C -0.5324008925 -1.2066153866 0.0288200108
C 2.3049035457 1.2421788627 -0.0432932008
C 2.2981215420 -1.2576209390 -0.0408028611
C -1.9150896438 1.2017634457 0.0697802901
C -1.9231300339 -1.1918194101 0.0634093790
C -2.6325149261 0.0073679053 0.0844162495
H -0.0024821981 2.1660182613 0.0257280840
H -0.0168967281 -2.1678504954 0.0133573587
H 2.0542882398 1.8519688706 -0.9309135831
H 3.3833425299 1.0398374994 -0.0719633165
H 2.1031402618 1.8590718457 0.8517336231
H 2.0854122358 -1.8749899781 0.8512424668
H 2.0515272926 -1.8644087233 -0.9317021305
H 3.3778691796 -1.0611852665 -0.0596262474
H -2.4466381269 2.1580668264 0.0856701440
H -2.4610044985 -2.1446596748 0.0740206524
H -3.7247790201 0.0108805101 0.1116513593
20
step=25 E=-365.859091553042 Eh
N 1.5806684276 -0.0057951174 -0.0184889697
C 0.2000817325 -0.0014779669 0.0143107372
C -0.5284492971 1.2080014170 0.0351030750
C -0.5362476040 -1.2063530472 0.0288040808
C 2.3018061232 1.2416487330 -0.0430752739
C 2.2944538324 -1.2575171519 -0.0407959768
C -1.9192953358 1.2019687303 0.0697010737
C -1.9270043393 -1.1915290226 0.0634685609
C -2.6366136856 0.0074947543 0.0844969583
H -0.0068164751 2.1659655868 0.0252593928
H -0.0208166159 -2.1675994051 0.0131930957
H 2.0519819355 1.8518346034 -0.9306470212
H 3.3801798331 1.0388028231 -0.0712605360
H 2.1000323639 1.8586000129 0.8519021281
H 2.0816363387 -1.8749516185 0.8511775226
H 2.0482288053 -1.8644769046 -0.9316720498
H 3.3742304145 -1.0611130546 -0.0594270363
H -2.4508245724 2.1582874441 0.0854945242
H -2.4647650209 -2.1444257987 0.0740901302
H -3.7288730114 0.0109049799 0.1118247087
