65
0 1 Before single point calculation
C 2.516377741 -5.810779354 0.536432368
N 2.567300228 -4.382798354 0.228958203
C 3.782933289 -3.721155507 0.720193373
C 1.393975692 -3.665236607 -0.084014459
C 0.164851356 -4.105993883 0.392928876
C -0.987898397 -3.366778069 0.227658981
C -0.991824925 -2.149220476 -0.438905541
C -2.194935853 -1.351562449 -0.508980924
C -3.328616231 -1.543174050 0.197811178
C -4.445051527 -0.614030253 0.179491164
C -5.798137049 -0.970197667 0.271477188
C -6.530185643 0.176944731 0.116806322
O -5.719195688 1.254476698 -0.057196792
C -4.423664426 0.792561817 0.008557859
C -3.266713293 1.655694154 -0.058752242
C -2.083585305 1.366911766 0.525209742
C -0.855698592 2.113677965 0.399849063
C -0.834139275 3.332936649 -0.265486653
C 0.330914849 4.047144911 -0.446917441
C 1.556672012 3.583989443 0.018460178
N 2.702923790 4.395383632 -0.092210000
C 2.787864834 5.447889517 -1.102859995
C 3.650377571 4.569785983 1.015890019
C 1.597946609 2.290064018 0.643621845
C 2.821459221 1.673562494 0.968088240
C 2.864748179 0.448235872 1.567534624
C 1.682387279 -0.223123735 1.864715105
C 0.478319132 0.324224346 1.527666774
C 0.391533515 1.577987451 0.881011528
C 0.242758883 -1.681516610 -1.011661450
C 0.332513147 -0.465540346 -1.726075173
C 1.509706712 -0.045434532 -2.273544388
C 2.655404749 -0.827286901 -2.156025096
C 2.610806443 -2.004343292 -1.466978560
C 1.427528444 -2.447429712 -0.846285812
H 3.492587203 -6.265491058 0.377045626
H 1.799095831 -6.309505721 -0.112799687
H 2.224808353 -5.964125157 1.573775410
H 3.621739980 -2.650144650 0.827360708
H 4.611762313 -3.894225548 0.036155992
H 4.054129191 -4.116809562 1.697468746
H 0.125480055 -5.022899420 0.953795183
H -1.907133898 -3.743857255 0.638640446
H -2.179396279 -0.494800690 -1.155296975
H -3.432027677 -2.419038901 0.812153833
H -6.182185375 -1.967087324 0.404438718
H -7.611280166 0.237691534 0.124738816
H -3.392972839 2.581179209 -0.588321410
H -2.053923881 0.473014370 1.117602203
H -1.754399242 3.744911243 -0.638494409
H 0.288681077 5.008190520 -0.927869335
H 3.828028183 5.712874283 -1.284498073
H 2.355959595 5.104385289 -2.041108349
H 2.254830486 6.336170081 -0.768707357
H 4.637431982 4.209414665 0.731952771
H 3.310816525 4.033397646 1.899925927
H 3.729878098 5.623765988 1.276425741
H 3.739375345 2.160862541 0.694692135
H 3.813277901 -0.005415658 1.804580126
H 1.721523242 -1.191288636 2.336940623
H -0.414988314 -0.232865823 1.739811840
H -0.534472132 0.159592502 -1.831298611
H 1.554173931 0.891851367 -2.804644112
H 3.575497736 -0.502129812 -2.614109966
H 3.487117921 -2.624439907 -1.422855772
