53
0 1 Before single point calculation
C 1.633695275 -1.408565869 -3.025348761
N 1.736735794 -1.907465083 -1.654494318
C 3.085771776 -2.110810850 -1.128744903
C 0.604278277 -2.006009815 -0.827808786
C -0.680179613 -1.764043599 -1.329555118
C -1.774392843 -1.758813779 -0.502287867
C -1.641242506 -1.981366377 0.873096461
C -2.765792905 -1.857270068 1.793042149
C -3.810862080 -1.002925297 1.690219140
C -3.993169215 0.076128331 0.720109031
C -5.283807015 0.365395866 0.156994467
C -5.280550931 1.362617969 -0.750398256
S -3.692467955 2.008988712 -0.957876958
C -3.011233093 0.937811127 0.239690045
C -1.637860383 0.969056751 0.627696898
C -0.676003213 1.581284286 -0.094813515
C 0.743448546 1.481213959 0.156296156
C 1.652965316 1.898311132 -0.822700653
C 3.003639685 1.737862454 -0.649225873
C 3.519309346 1.156497441 0.515402568
N 4.899681476 0.956599972 0.678196414
C 5.852647182 1.308206623 -0.373018891
C 5.445697767 0.348877814 1.890856633
C 2.610392368 0.760894926 1.503959486
C 1.259526227 0.917543809 1.329541366
C -0.367253308 -2.293977929 1.362470986
C 0.726695510 -2.302666455 0.534761934
H 2.615714036 -1.308399909 -3.483314783
H 1.044372552 -2.095448033 -3.630151446
H 1.156508039 -0.429969479 -3.029708038
H 3.831463674 -2.036466840 -1.917761969
H 3.309344676 -1.357625089 -0.375895374
H 3.167795364 -3.098797625 -0.679512701
H -0.806608725 -1.557767004 -2.377274529
H -2.750783479 -1.547035982 -0.902176136
H -2.746237729 -2.524540408 2.640456640
H -4.617890433 -1.120611380 2.396833994
H -6.168629629 -0.188820107 0.431060717
H -6.139495451 1.717398129 -1.287943153
H -1.358230558 0.388445294 1.486724498
H -0.978251264 2.104290103 -0.984378690
H 1.274873020 2.329312394 -1.734013770
H 3.679538244 2.054256958 -1.423439289
H 6.870007852 1.049358178 -0.086065511
H 5.816518883 2.378782461 -0.566833944
H 5.612551877 0.771663923 -1.289380054
H 6.532071567 0.298389116 1.852552607
H 5.061727160 -0.663184780 2.007001477
H 5.165793658 0.938456464 2.762137128
H 2.979371969 0.314959685 2.410272153
H 0.586203908 0.597723150 2.104616493
H -0.248560786 -2.487404550 2.414944573
H 1.699821357 -2.507448996 0.943905686
