58
0 1 Before single point calculation
C 10.361494638 -2.904806539 -0.073079096
N 9.893981155 -1.542457303 -0.001830429
C 10.828126979 -0.488500797 -0.314780151
C 8.546106781 -1.279805467 -0.000976909
C 8.054946317 0.033191690 -0.071725401
C 6.705008882 0.292526260 -0.039983453
C 5.760047630 -0.731741633 0.058343631
C 4.346128551 -0.446961599 0.077980908
C 3.287187712 -1.320089159 0.127813300
C 2.033778250 -0.694343539 0.122904051
C 2.113411881 0.672158629 0.071146419
C 1.021201405 1.601542331 0.046002632
C 1.120943070 2.970153548 0.015409921
S -0.430419796 3.701744918 -0.013699361
C -1.132098513 2.072955468 0.017852079
C -2.538168320 1.886462535 0.005183481
C -3.529122260 2.838350534 -0.032478917
C -4.814280433 2.292194199 -0.039228308
C -4.832661763 0.915148743 -0.007139749
C -5.969495778 0.029225282 -0.005744298
C -5.802882897 -1.358818490 0.014797113
C -6.875398659 -2.217969164 0.012656839
C -8.194542080 -1.735568510 -0.007819843
N -9.269017951 -2.583805474 0.009043929
C -10.605194244 -2.065829505 -0.149603934
C -9.070031462 -4.011065564 -0.031644613
C -8.361682838 -0.341221134 -0.029618574
C -7.282478277 0.511100129 -0.027611061
S -3.208537290 0.285613674 0.032757038
N -0.254186072 1.131358299 0.047479173
S 3.767139364 1.198510864 0.027409782
C 6.247411516 -2.039976391 0.128803929
C 7.596404223 -2.308084766 0.098470719
H 9.992143099 -3.478233839 0.779909418
H 11.448478575 -2.916251533 -0.035123594
H 10.042838488 -3.404625754 -0.995944045
H 11.839600253 -0.887777478 -0.310068525
H 10.776979413 0.303274819 0.436251899
H 10.636164385 -0.048841021 -1.300317105
H 8.732104261 0.867195755 -0.152585198
H 6.363354242 1.316607617 -0.097613636
H 3.402977273 -2.388249177 0.163800475
H 1.091272435 -1.209904761 0.155039956
H 2.010539289 3.566170055 0.008911228
H -3.319750821 3.893690858 -0.055470519
H -5.702086613 2.897083686 -0.068431531
H -4.801358544 -1.764299841 0.028994361
H -6.680814342 -3.277557233 0.023414822
H -11.315524173 -2.888769368 -0.160020614
H -10.713502937 -1.509041188 -1.086652374
H -10.867147500 -1.404204826 0.681148691
H -8.574371930 -4.327006376 -0.956398296
H -10.032416193 -4.513615004 0.028276739
H -8.466090489 -4.339866696 0.817701590
H -9.349335023 0.088788718 -0.046229770
H -7.464238609 1.574504395 -0.043668788
H 5.557698573 -2.866370165 0.204823844
H 7.909682182 -3.337770813 0.147964774
58
step=1 E=-2401.196556502608 Eh
C 10.3614942374 -2.9048064525 -0.0730790977
N 9.8939812955 -1.5424572810 -0.0018304293
C 10.8281271154 -0.4885007822 -0.3147801326
C 8.5461065919 -1.2798054430 -0.0009769088
C 8.0549458052 0.0331916880 -0.0717253988
C 6.7050088451 0.2925262306 -0.0399834500
C 5.7600474421 -0.7317416328 0.0583436290
C 4.3461285121 -0.4469615883 0.0779809085
C 3.2871875926 -1.3200891005 0.1278132989
C 2.0337781491 -0.6943435099 0.1229040478
C 2.1134117892 0.6721585808 0.0711464208
C 1.0212014296 1.6015423985 0.0460026291
C 1.1209430681 2.9701534932 0.0154099208
S -0.4304198103 3.7017449032 -0.0136993608
C -1.1320983989 2.0729553024 0.0178520790
C -2.5381682603 1.8864624422 0.0051834813
C -3.5291221110 2.8383504521 -0.0324789181
C -4.8142803403 2.2921940718 -0.0392283088
C -4.8326614536 0.9151487496 -0.0071397489
C -5.9694959938 0.0292252826 -0.0057442980
C -5.8028826122 -1.3588184217 0.0147971125
C -6.8753987846 -2.2179690991 0.0126568394
C -8.1945423830 -1.7355685289 -0.0078198421
N -9.2690180139 -2.5838053020 0.0090439296
C -10.6051943345 -2.0658294709 -0.1496039380
C -9.0700312956 -4.0110654139 -0.0316446120
C -8.3616830950 -0.3412211122 -0.0296185724
C -7.2824783608 0.5111001099 -0.0276110593
S -3.2085372008 0.2856136416 0.0327570378
N -0.2541860716 1.1313582387 0.0474791711
S 3.7671392100 1.1985108321 0.0274097814
C 6.2474111230 -2.0399763224 0.1288039186
C 7.5964040415 -2.3080847501 0.0984707189
H 9.9921431125 -3.4782339010 0.7799093905
H 11.4484789879 -2.9162514707 -0.0351235923
H 10.0428384427 -3.4046257637 -0.9959440130
H 11.8396000559 -0.8877774711 -0.3100685186
H 10.7769791639 0.3032747987 0.4362518723
H 10.6361635470 -0.0488410192 -1.3003170714
H 8.7321043962 0.8671957215 -0.1525852007
H 6.3633542415 1.3166076013 -0.0976136317
H 3.4029772391 -2.3882492713 0.1638004714
H 1.0912723030 -1.2099047530 0.1550399480
H 2.0105393213 3.5661700192 0.0089112278
H -3.3197507027 3.8936909240 -0.0554705196
H -5.7020863605 2.8970835926 -0.0684315300
H -4.8013585948 -1.7642999198 0.0289943602
H -6.6808143127 -3.2775570436 0.0234148216
H -11.3155242562 -2.8887694037 -0.1600206009
H -10.7135031351 -1.5090412007 -1.0866523531
H -10.8671478174 -1.4042047922 0.6811486613
H -8.5743713120 -4.3270062014 -0.9563982190
H -10.0324158954 -4.5136151631 0.0282767377
H -8.4660903726 -4.3398664830 0.8177015494
H -9.3493351551 0.0887887180 -0.0462297678
H -7.4642384823 1.5745043588 -0.0436687883
H 5.5576980513 -2.8663703007 0.2048238393
H 7.9096816548 -3.3377708113 0.1479647693
58
step=2 E=-2401.204158171379 Eh
C 10.3191961268 -3.0137329264 -0.0683931215
N 9.9196004321 -1.6268313961 0.0015791351
C 10.8802186250 -0.5906345529 -0.3033219988
C 8.5780609739 -1.3139313526 -0.0007006119
C 8.1334290144 0.0214025748 -0.0706738546
C 6.7838112553 0.3269771780 -0.0425754548
C 5.7899304082 -0.6576548456 0.0504293760
C 4.3607537555 -0.3550364081 0.0696839138
C 3.2978418818 -1.2252359206 0.1158046757
C 2.0355545303 -0.5868404922 0.1126496881
C 2.1240340783 0.7797131413 0.0658350079
C 1.0223687443 1.7255852636 0.0438080023
C 1.1168996699 3.0942497842 0.0179687054
S -0.4440266463 3.8075035490 -0.0076929937
C -1.1468542376 2.1904894566 0.0185548747
C -2.5716300874 1.9810675699 0.0069366837
C -3.5940004012 2.9001357014 -0.0262206310
C -4.8745253635 2.3104357693 -0.0322656127
C -4.8435257951 0.9329204348 -0.0038879592
C -5.9672914770 0.0012285324 -0.0026817831
C -5.8036516931 -1.3919736343 0.0137642500
C -6.8751947984 -2.2663249757 0.0113796142
C -8.2016289936 -1.7882432653 -0.0053269638
N -9.2734060285 -2.6468055965 0.0106610229
C -10.6099120925 -2.1204612675 -0.1450688541
C -9.0614579978 -4.0751074135 -0.0337054288
C -8.3770158820 -0.3889326425 -0.0237746654
C -7.2897521701 0.4667272420 -0.0212023341
S -3.2005487927 0.3676975181 0.0309915152
N -0.2608803714 1.2489711455 0.0443859920
S 3.7809623993 1.2867602486 0.0248060033
C 6.2420783431 -1.9825521538 0.1184609710
C 7.5864750688 -2.3109676114 0.0925013375
H 9.9213697645 -3.5770888355 0.7861978995
H 11.4097896033 -3.0785477160 -0.0280920306
H 9.9780477177 -3.5041030057 -0.9953995124
H 11.8866958101 -1.0170273009 -0.3001179818
H 10.8523608617 0.2050362216 0.4536945476
H 10.7025896144 -0.1345035327 -1.2908324335
H 8.8458648497 0.8368596588 -0.1478214801
H 6.4853898490 1.3726721228 -0.0997679135
H 3.4132424473 -2.3036096680 0.1482594335
H 1.0800535780 -1.0992754767 0.1427418369
H 2.0125051896 3.7023427095 0.0130600099
H -3.4171311676 3.9717347393 -0.0467611723
H -5.7919364066 2.8886480143 -0.0582292026
H -4.7954415598 -1.8027864870 0.0252841046
H -6.6729550108 -3.3328517601 0.0190658313
H -11.3263056942 -2.9456047382 -0.1583573687
H -10.7218903483 -1.5556086667 -1.0838624830
H -10.8766803381 -1.4564743814 0.6900566738
H -8.5610825951 -4.3916757486 -0.9629316128
H -10.0251149218 -4.5873059669 0.0259989175
H -8.4514431613 -4.4090274618 0.8171065622
H -9.3735758144 0.0414573346 -0.0379251207
H -7.4796417396 1.5374470490 -0.0343605060
H 5.5178092352 -2.7906076210 0.1906899255
H 7.8613964639 -3.3601018024 0.1408670911
58
step=3 E=-2401.203828019371 Eh
C 10.3439629777 -3.0032787070 -0.0758282402
N 9.8865407357 -1.6357435179 0.0134896633
C 10.8463439280 -0.5983501595 -0.2891410343
C 8.5318141401 -1.3523405922 0.0197696452
C 8.0465117413 -0.0259933880 -0.0576723749
C 6.6836658665 0.2541594488 -0.0352925927
C 5.7346915006 -0.7746240375 0.0589042472
C 4.2946723554 -0.4397207586 0.0722908091
C 3.2082539689 -1.2817177863 0.1125427885
C 1.9551124404 -0.5975313610 0.1071033391
C 2.0986617186 0.7636766385 0.0629686250
C 1.0074422764 1.7498931500 0.0410199509
C 1.1204453214 3.1156901111 0.0187023741
S -0.4324771716 3.8446519016 -0.0059370156
C -1.1476137487 2.2590531829 0.0170441542
C -2.5990865229 2.0776945930 0.0068660250
C -3.5869003350 3.0312342457 -0.0226710032
C -4.8859752866 2.4489893441 -0.0278626227
C -4.8766607205 1.0703742382 -0.0025090189
C -6.0126207125 0.1247825391 -0.0007420995
C -5.7512386029 -1.2538664640 0.0153204307
C -6.7888537508 -2.1787225906 0.0168044411
C -8.1430408491 -1.7691166029 0.0057715902
N -9.1673416752 -2.6919941905 0.0168914907
C -10.5429195305 -2.2709562268 -0.1301905503
C -8.8437783159 -4.0996701435 -0.0276875876
C -8.3937197303 -0.3756781580 -0.0182088918
C -7.3526597835 0.5461067483 -0.0186173144
S -3.2538386080 0.4831146866 0.0293032716
N -0.2885072457 1.2863066133 0.0405174209
S 3.7656919139 1.2096794910 0.0276179719
C 6.2001768749 -2.0980975873 0.1272005166
C 7.5616677849 -2.3795912616 0.1034707165
H 9.9796064303 -3.6077998892 0.7743571497
H 11.4439522099 -3.0187427396 -0.0404406185
H 10.0223818062 -3.5069872505 -1.0110807557
H 11.8583232447 -1.0310625068 -0.2835055800
H 10.8285199383 0.2084703326 0.4666250566
H 10.6770917595 -0.1341489683 -1.2823769826
H 8.7435782914 0.8134651216 -0.1361696578
H 6.3586508772 1.3025031134 -0.0965212054
H 3.2962331492 -2.3733949864 0.1423374374
H 0.9700584086 -1.0761764464 0.1325882345
H 2.0352458914 3.7174845505 0.0162528386
H -3.3883192202 4.1107592438 -0.0411405453
H -5.8056448250 3.0433374181 -0.0509301930
H -4.7152662181 -1.6215530155 0.0243572815
H -6.5334797042 -3.2426390049 0.0241636250
H -11.1934213047 -3.1580332666 -0.1394012874
H -10.7159361276 -1.7130441926 -1.0722634321
H -10.8718378311 -1.6257465876 0.7066983142
H -8.3162884991 -4.3892497597 -0.9594803819
H -9.7726543934 -4.6857377980 0.0329348782
H -8.2061464213 -4.3992296527 0.8250069390
H -9.4207479346 0.0014595605 -0.0331764739
H -7.5984337232 1.6154943876 -0.0334523687
H 5.4914449929 -2.9326971536 0.1985458133
H 7.8707530693 -3.4279326986 0.1512588186
58
step=4 E=-2401.205746066411 Eh
C 10.3363587668 -3.0106756976 -0.0702475629
N 9.9087961509 -1.6335667638 0.0146145247
C 10.8666528990 -0.5942731971 -0.2856579729
C 8.5591853402 -1.3360461169 0.0192283615
C 8.0978835261 -0.0035939155 -0.0596740501
C 6.7396833229 0.2911026620 -0.0388857599
C 5.7688796866 -0.7162404313 0.0544082796
C 4.3278643544 -0.3916686379 0.0681459151
C 3.2555006868 -1.2500683108 0.1088181710
C 1.9950499900 -0.5839133170 0.1041457595
C 2.1183944633 0.7791895446 0.0602277989
C 1.0160815899 1.7492759538 0.0391560904
C 1.1169566442 3.1153851499 0.0171683705
S -0.4436315436 3.8278539223 -0.0062745901
C -1.1414199578 2.2352637466 0.0166419370
C -2.5883572463 2.0357293126 0.0074393661
C -3.5910787571 2.9729988501 -0.0209669647
C -4.8833274195 2.3795382384 -0.0254475036
C -4.8508917428 1.0024066289 -0.0006036519
C -5.9848922817 0.0559987631 0.0013156959
C -5.7698208702 -1.3299723896 0.0161709276
C -6.8252929591 -2.2324966797 0.0173479160
C -8.1678742406 -1.7908360654 0.0071334462
N -9.2238836653 -2.6765287871 0.0176307942
C -10.5747885013 -2.1866498162 -0.1299989875
C -8.9641592597 -4.0965530145 -0.0275758419
C -8.3794923951 -0.3928740191 -0.0156727608
C -7.3152633732 0.4996676856 -0.0157090889
S -3.2207427824 0.4327807972 0.0297767142
N -0.2732807470 1.2714104648 0.0392850289
S 3.7781180247 1.2508637436 0.0240552281
C 6.2221905107 -2.0417671160 0.1235185667
C 7.5766130027 -2.3487141130 0.1021204126
H 9.9593592615 -3.6041003651 0.7812945320
H 11.4345432224 -3.0506903667 -0.0350986820
H 10.0036829021 -3.5100438648 -1.0030573353
H 11.8785139748 -1.0241898515 -0.2823989858
H 10.8480275392 0.2097525413 0.4719793791
H 10.6958265336 -0.1274772642 -1.2765780177
H 8.8068587038 0.8245352605 -0.1375907267
H 6.4332624408 1.3429671360 -0.1011789300
H 3.3595250577 -2.3387681343 0.1383250226
H 1.0184665661 -1.0756819030 0.1300347208
H 2.0242536046 3.7247751451 0.0143859594
H -3.4070791067 4.0531564838 -0.0391445659
H -5.8096426953 2.9608312254 -0.0475123653
H -4.7464299198 -1.7257843668 0.0245448684
H -6.5939612896 -3.3003903420 0.0237903132
H -11.2690406341 -3.0386569028 -0.1413547171
H -10.7180221958 -1.6194598027 -1.0705839476
H -10.8706684336 -1.5274245859 0.7072491609
H -8.4499307517 -4.4084516349 -0.9585033561
H -9.9174825942 -4.6403937424 0.0319085287
H -8.3418001026 -4.4246684259 0.8246795162
H -9.3950310021 0.0111335515 -0.0300110784
H -7.5364476782 1.5729067991 -0.0296777260
H 5.5025412884 -2.8649858817 0.1943648730
H 7.8687962017 -3.4006485233 0.1509905126
58
step=5 E=-2401.205213025871 Eh
C 10.2374571938 -3.0867260916 -0.0639112855
N 9.8679328384 -1.6940275414 0.0141157881
C 10.8536372583 -0.6791399100 -0.2709103111
C 8.5304910962 -1.3514200474 0.0141720817
C 8.1016915854 -0.0099968713 -0.0611015929
C 6.7530436449 0.3150895116 -0.0410565857
C 5.7482660431 -0.6560086884 0.0476191283
C 4.3109287964 -0.3361716825 0.0631163587
C 3.2387168563 -1.1937737350 0.1007310440
C 1.9804536846 -0.5328019327 0.0988281552
C 2.0970228700 0.8310505146 0.0605613346
C 1.0036915828 1.8030910105 0.0431505391
C 1.1198234903 3.1677028494 0.0264815641
S -0.4367074239 3.8918341367 0.0061457847
C -1.1520326271 2.3052242663 0.0218607230
C -2.5926242731 2.0971599406 0.0116526032
C -3.6174281879 3.0096477947 -0.0128406802
C -4.9004350577 2.4049653531 -0.0184479348
C -4.8476765711 1.0294508657 0.0016320070
C -5.9596579189 0.0649368056 0.0024146132
C -5.7453715019 -1.3190878582 0.0141257671
C -6.7897120268 -2.2302537659 0.0148696787
C -8.1279418591 -1.7854109670 0.0070445500
N -9.1490108215 -2.7090065681 0.0200581492
C -10.5251546896 -2.2987341351 -0.1144166806
C -8.8219075715 -4.1127875275 -0.0252887845
C -8.3599878817 -0.3924830997 -0.0121073626
C -7.2932620873 0.4930758608 -0.0117036191
S -3.2058344301 0.4857519122 0.0278861568
N -0.2882701018 1.3378735926 0.0411091856
S 3.7571925200 1.3062172159 0.0279130327
C 6.1817215864 -1.9856967979 0.1140072375
C 7.5231933113 -2.3357898938 0.0944503571
H 9.8294863240 -3.6580778903 0.7855232364
H 11.3299630932 -3.1757767904 -0.0218964510
H 9.8888220571 -3.5720555553 -0.9955730759
H 11.8532013409 -1.1305474744 -0.2592344322
H 10.8438373053 0.1191043180 0.4895099227
H 10.7037247045 -0.2051075136 -1.2591883165
H 8.8282539924 0.7985720865 -0.1343789526
H 6.4777087572 1.3715670974 -0.1014608387
H 3.3436663710 -2.2783070708 0.1254613780
H 1.0093394985 -1.0261260619 0.1225848078
H 2.0290050972 3.7654371504 0.0260981581
H -3.4533845126 4.0884900801 -0.0270328309
H -5.8305447836 2.9723330908 -0.0372419544
H -4.7235004621 -1.7080980943 0.0204068058
H -6.5561910153 -3.2948216914 0.0199766758
H -11.1693084183 -3.1863863633 -0.1176787588
H -10.7084692124 -1.7435596284 -1.0524043219
H -10.8465890932 -1.6576889685 0.7243458584
H -8.2988541048 -4.3965673783 -0.9574218396
H -9.7432039230 -4.7043367292 0.0398964486
H -8.1796487347 -4.4048730113 0.8223363165
H -9.3740610752 0.0059427267 -0.0231575440
H -7.5164589004 1.5619788830 -0.0231657879
H 5.4445851741 -2.7883865631 0.1818287388
H 7.7847958415 -3.3925028721 0.1432235581
58
step=6 E=-2401.206010864328 Eh
C 10.2750784856 -3.0547737017 -0.0632958319
N 9.8840657706 -1.6681071903 0.0142210707
C 10.8576719125 -0.6422546394 -0.2723303469
C 8.5419539211 -1.3427099224 0.0150110999
C 8.1030507830 -0.0044642236 -0.0612999689
C 6.7515724203 0.3094678782 -0.0409231172
C 5.7573827828 -0.6723091550 0.0491073009
C 4.3197233915 -0.3540841461 0.0642582236
C 3.2480973441 -1.2127458570 0.1025732251
C 1.9894468181 -0.5520348653 0.1000372113
C 2.1057387253 0.8118438051 0.0606303562
C 1.0105853983 1.7823852370 0.0424734917
C 1.1221360532 3.1476267879 0.0247461763
S -0.4359715030 3.8684777364 0.0039953817
C -1.1458845119 2.2803285816 0.0209268729
C -2.5866957725 2.0714954720 0.0109060589
C -3.6082626905 2.9876635023 -0.0141391888
C -4.8919292674 2.3837885080 -0.0193627646
C -4.8419318569 1.0079404231 0.0014902880
C -5.9568090994 0.0464735333 0.0027315369
C -5.7457175323 -1.3379641016 0.0151348145
C -6.7936560091 -2.2457127446 0.0162233239
C -8.1342569455 -1.8041576314 0.0082012973
N -9.1788635074 -2.7021859224 0.0211081260
C -10.5348908915 -2.2303674788 -0.1158263380
C -8.9048393371 -4.1177470861 -0.0227844769
C -8.3549746592 -0.4095294282 -0.0116166050
C -7.2893885910 0.4777651953 -0.0116790406
S -3.2016810808 0.4605424558 0.0281121037
N -0.2802642701 1.3139483003 0.0408441453
S 3.7655002526 1.2879933100 0.0276083007
C 6.1987365739 -1.9999594789 0.1166249298
C 7.5436722560 -2.3369153551 0.0966439777
H 9.8764594422 -3.6322009785 0.7865854678
H 11.3690420116 -3.1267545029 -0.0216902882
H 9.9336705797 -3.5460134540 -0.9946477527
H 11.8626644525 -1.0819091991 -0.2602729564
H 10.8386995156 0.1569765890 0.4870648457
H 10.7020553869 -0.1712174663 -1.2612932486
H 8.8232693946 0.8099123449 -0.1356055080
H 6.4662369701 1.3636018170 -0.1020844764
H 3.3536655117 -2.2973800273 0.1282334146
H 1.0182338844 -1.0456465964 0.1241818651
H 2.0298420043 3.7480023000 0.0238625772
H -3.4420232349 4.0664673671 -0.0289646475
H -5.8213707192 2.9525686114 -0.0384967114
H -4.7247335540 -1.7301283388 0.0216292745
H -6.5598929788 -3.3098233264 0.0217780685
H -11.2186374885 -3.0879305029 -0.1209651215
H -10.6912706288 -1.6667624891 -1.0538872245
H -10.8288222459 -1.5757209348 0.7228128658
H -8.3915704132 -4.4221210620 -0.9539764034
H -9.8481148190 -4.6739133273 0.0413690194
H -8.2754962143 -4.4340247893 0.8259055007
H -9.3682409579 -0.0082681722 -0.0229754074
H -7.5121093424 1.5470579115 -0.0237427424
H 5.4678865988 -2.8086232761 0.1854744115
H 7.8152455823 -3.3911097607 0.1461814190
58
step=7 E=-2401.205996156976 Eh
C 10.3086544188 -3.0300268042 -0.0474358761
N 9.8973087191 -1.6483058125 0.0212840313
C 10.8559933711 -0.6065074208 -0.2608040908
C 8.5502926915 -1.3417466471 0.0204353996
C 8.1089726224 -0.0042182690 -0.0644123616
C 6.7542436698 0.3016688914 -0.0479920196
C 5.7698123297 -0.6908695535 0.0457045327
C 4.3330490319 -0.3593115020 0.0567181044
C 3.2636983654 -1.2214403234 0.0943158630
C 2.0051002514 -0.5565589956 0.0903761500
C 2.1262932270 0.8069631225 0.0505659897
C 1.0214045373 1.7703755752 0.0337953892
C 1.1130310906 3.1374908882 0.0164451219
S -0.4527315393 3.8406809052 0.0001513918
C -1.1370088958 2.2452441680 0.0183547656
C -2.5796034196 2.0310283057 0.0131512577
C -3.5919258156 2.9579826753 -0.0056303146
C -4.8777296131 2.3538786838 -0.0076010912
C -4.8287094480 0.9774328651 0.0086926949
C -5.9575086792 0.0282437202 0.0100280224
C -5.7573186234 -1.3593015475 0.0161457697
C -6.8139663433 -2.2587913787 0.0164143569
C -8.1512936738 -1.8060623430 0.0148357659
N -9.2084292784 -2.6900490593 0.0242128875
C -10.5613247077 -2.2042784035 -0.1032040739
C -8.9478948015 -4.1082748875 -0.0272563555
C -8.3545635045 -0.4078180246 0.0013124747
C -7.2854711397 0.4773866119 0.0014227370
S -3.1935294503 0.4204027104 0.0287346847
N -0.2636911673 1.2847316662 0.0346791622
S 3.7847035641 1.2839198924 0.0165786021
C 6.2084041952 -2.0205313825 0.1200262263
C 7.5577556861 -2.3434764592 0.1035111493
H 9.9169058132 -3.6110701064 0.8047654821
H 11.4046611741 -3.0849640842 -0.0023400690
H 9.9777483285 -3.5331596724 -0.9776456365
H 11.8690947854 -1.0299843302 -0.2401019162
H 10.8195722766 0.1961604231 0.4961903216
H 10.7008167946 -0.1392296369 -1.2530108281
H 8.8272612854 0.8138330403 -0.1422438852
H 6.4615534396 1.3554187032 -0.1151106107
H 3.3698455970 -2.3080675963 0.1208864612
H 1.0304932969 -1.0480064000 0.1144147784
H 2.0145216234 3.7512334723 0.0139807119
H -3.4204291807 4.0382765327 -0.0180706062
H -5.8085943988 2.9244819077 -0.0217392474
H -4.7388941801 -1.7629233832 0.0175522638
H -6.5891721273 -3.3265684432 0.0158872321
H -11.2537259206 -3.0564903999 -0.1085529797
H -10.7189682048 -1.6341285144 -1.0385176869
H -10.8466776496 -1.5497278370 0.7400700514
H -8.4376882442 -4.4148836760 -0.9608936951
H -9.8983364073 -4.6547346840 0.0343279288
H -8.3210838077 -4.4379895519 0.8198763447
H -9.3661526901 0.0016030302 -0.0059920366
H -7.5000132006 1.5504716201 -0.0059670686
H 5.4798900873 -2.8337240978 0.1915953114
H 7.8381807371 -3.3966164722 0.1579441931
58
step=8 E=-2401.206130427359 Eh
C 10.2927038955 -3.0424400548 -0.0468027361
N 9.8921285008 -1.6578906891 0.0222412406
C 10.8643523663 -0.6288704811 -0.2584485828
C 8.5478424771 -1.3386980154 0.0202485451
C 8.1057235351 -0.0012318528 -0.0642761069
C 6.7520383496 0.3086310302 -0.0483227177
C 5.7644406023 -0.6803015873 0.0447402360
C 4.3267030425 -0.3534811551 0.0560073644
C 3.2560437864 -1.2138494867 0.0931632640
C 1.9970731447 -0.5505082475 0.0896201890
C 2.1173025651 0.8130226513 0.0504750354
C 1.0150604697 1.7787096804 0.0341414114
C 1.1139896258 3.1450705743 0.0174554206
S -0.4496946184 3.8533966856 0.0015122074
C -1.1423309108 2.2612152589 0.0189594972
C -2.5848463308 2.0483086209 0.0137917681
C -3.6008955646 2.9708589836 -0.0043515522
C -4.8855419814 2.3649119049 -0.0063549581
C -4.8347355922 0.9886963853 0.0093101413
C -5.9575293334 0.0329668908 0.0106072669
C -5.7481088878 -1.3526913182 0.0160733330
C -6.7999722058 -2.2574180214 0.0163311333
C -8.1404570742 -1.8143919785 0.0154328377
N -9.1934790474 -2.7029523102 0.0248391942
C -10.5454326096 -2.2153260864 -0.1021091761
C -8.9315819558 -4.1208262435 -0.0270281468
C -8.3531482534 -0.4178327261 0.0025607280
C -7.2886291541 0.4723187794 0.0026588929
S -3.1973039545 0.4371358652 0.0286940419
N -0.2720260071 1.2981413284 0.0348178770
S 3.7762538124 1.2890338221 0.0167827200
C 6.2040130473 -2.0091737294 0.1186638710
C 7.5521111747 -2.3366182189 0.1026351225
H 9.8951932029 -3.6206178858 0.8044263277
H 11.3879958060 -3.1061613946 -0.0003204926
H 9.9590931615 -3.5421479262 -0.9776189444
H 11.8717058623 -1.0652765998 -0.2356177389
H 10.8366947285 0.1742245458 0.4980641333
H 10.7170581464 -0.1602405768 -1.2509621442
H 8.8245345813 0.8157230274 -0.1416741127
H 6.4625999050 1.3628725089 -0.1153262953
H 3.3618864923 -2.3000308674 0.1191822789
H 1.0231864255 -1.0424486046 0.1134443116
H 2.0178020791 3.7545963436 0.0152863569
H -3.4325531928 4.0511532731 -0.0163089041
H -5.8168441457 2.9339306108 -0.0200260236
H -4.7275151926 -1.7499382733 0.0169512679
H -6.5683952118 -3.3233727086 0.0152824897
H -11.2389538168 -3.0662940340 -0.1079268313
H -10.7022527732 -1.6444309393 -1.0368629768
H -10.8294789644 -1.5610131589 0.7415242657
H -8.4211977497 -4.4264225140 -0.9606195356
H -9.8811691383 -4.6683516836 0.0343373322
H -8.3045652995 -4.4500871764 0.8198516926
H -9.3670279933 -0.0146335835 -0.0042023666
H -7.5097626486 1.5435641151 -0.0042104419
H 5.4747427849 -2.8210847745 0.1898019784
H 7.8291279951 -3.3904221640 0.1569556378
58
step=9 E=-2401.206099825226 Eh
C 10.2877082350 -3.0456251967 -0.0426841888
N 9.8774329230 -1.6641452880 0.0239480080
C 10.8400380569 -0.6261050927 -0.2542429844
C 8.5317282965 -1.3538430010 0.0217187029
C 8.0932112679 -0.0159438837 -0.0635339329
C 6.7404087686 0.2951631516 -0.0478330473
C 5.7509767376 -0.6911986267 0.0455208552
C 4.3137218491 -0.3667497934 0.0570181766
C 3.2381558960 -1.2208016273 0.0935413294
C 1.9822921944 -0.5536600328 0.0902709536
C 2.1052819633 0.8096522233 0.0519390262
C 1.0119025320 1.7837173904 0.0359056393
C 1.1236055430 3.1489487101 0.0202064770
S -0.4347096655 3.8701195633 0.0044021747
C -1.1434559069 2.2840718272 0.0205212687
C -2.5856109531 2.0754619983 0.0149340087
C -3.6062101454 2.9927016228 -0.0022238193
C -4.8896224156 2.3859102980 -0.0045462111
C -4.8386812499 1.0098985074 0.0101086996
C -5.9525308976 0.0455283813 0.0115028220
C -5.7321367944 -1.3376509940 0.0156929262
C -6.7767597356 -2.2499354314 0.0162793906
C -8.1207678211 -1.8185420269 0.0170209736
N -9.1652832317 -2.7169676974 0.0273080642
C -10.5211287640 -2.2408234580 -0.0961896135
C -8.8927172969 -4.1324278974 -0.0253334249
C -8.3467385139 -0.4242764749 0.0054696595
C -7.2875930930 0.4713132764 0.0051571965
S -3.1984944161 0.4640986231 0.0282749215
N -0.2794296040 1.3153952741 0.0361007825
S 3.7670111083 1.2773929899 0.0194748290
C 6.1916815844 -2.0192920034 0.1200541134
C 7.5377601049 -2.3529231569 0.1046601065
H 9.8937466592 -3.6246628708 0.8089195746
H 11.3828141964 -3.1018875852 0.0043237820
H 9.9580178830 -3.5483934865 -0.9725816231
H 11.8512482389 -1.0518477298 -0.2292066569
H 10.8018164725 0.1758057935 0.5023356595
H 10.6900442371 -0.1590709357 -1.2465323248
H 8.8133586479 0.7990242830 -0.1411817101
H 6.4523130393 1.3488431691 -0.1154273949
H 3.3388708819 -2.3064899197 0.1187508169
H 1.0078167790 -1.0422720062 0.1136340776
H 2.0319280921 3.7497530823 0.0186512215
H -3.4411773400 4.0724517830 -0.0131756639
H -5.8204002836 2.9538901457 -0.0174869811
H -4.7089517735 -1.7258848379 0.0153154759
H -6.5361737525 -3.3130976510 0.0143728382
H -11.2075663778 -3.0968238088 -0.1004548007
H -10.6844948806 -1.6713175373 -1.0300188157
H -10.8075295454 -1.5894044330 0.7481479653
H -8.3809829187 -4.4327890455 -0.9591723204
H -9.8372096360 -4.6876474510 0.0362765556
H -8.2627816031 -4.4565169489 0.8206688884
H -9.3629826361 -0.0290078875 0.0001510620
H -7.5169724819 1.5398200239 -0.0006704292
H 5.4615142377 -2.8290647131 0.1915780203
H 7.8129386716 -3.4064094869 0.1597471155
58
step=10 E=-2401.206152190000 Eh
C 10.2813560818 -3.0502771614 -0.0380012107
N 9.8821034939 -1.6654677235 0.0269738077
C 10.8557651160 -0.6367535539 -0.2476192694
C 8.5387327440 -1.3446580445 0.0227714317
C 8.0985849775 -0.0070399219 -0.0630703879
C 6.7458376094 0.3049365545 -0.0482474073
C 5.7559014247 -0.6811560568 0.0448470020
C 4.3190007119 -0.3553430640 0.0557493572
C 3.2457661363 -1.2124636068 0.0912026432
C 1.9889582710 -0.5469203614 0.0881062628
C 2.1102337850 0.8166938161 0.0509259603
C 1.0131359910 1.7867847799 0.0356546017
C 1.1176090055 3.1527854439 0.0211495281
S -0.4437206709 3.8673608073 0.0061914512
C -1.1438911627 2.2778319176 0.0210924892
C -2.5854454871 2.0648321780 0.0158226679
C -3.6061292478 2.9822338468 0.0003212536
C -4.8888244789 2.3736951242 -0.0018333881
C -4.8352168745 0.9976721340 0.0113780867
C -5.9509692574 0.0353960844 0.0128264445
C -5.7356884836 -1.3489181759 0.0150871901
C -6.7822985580 -2.2591178382 0.0159161146
C -8.1248214309 -1.8231692696 0.0189231708
N -9.1723779104 -2.7181761992 0.0297094629
C -10.5274452118 -2.2384688613 -0.0898694890
C -8.9039874683 -4.1344147017 -0.0247754990
C -8.3456658553 -0.4278857696 0.0093253596
C -7.2846359807 0.4657087187 0.0086417323
S -3.1950422020 0.4521451106 0.0276040729
N -0.2759063333 1.3125096817 0.0356984588
S 3.7707936835 1.2883830440 0.0196602448
C 6.1952394778 -2.0097604677 0.1199651266
C 7.5419871079 -2.3411147792 0.1052165204
H 9.8807375523 -3.6256459242 0.8131364375
H 11.3759430406 -3.1155806653 0.0112982841
H 9.9494904855 -3.5509020943 -0.9683707026
H 11.8627436965 -1.0723994043 -0.2186290290
H 10.8225504391 0.1656028567 0.5088019504
H 10.7142102733 -0.1683010934 -1.2405629074
H 8.8183157527 0.8082894390 -0.1406144256
H 6.4582209530 1.3588733653 -0.1163812552
H 3.3487377678 -2.2981799335 0.1154600959
H 1.0149670783 -1.0369248974 0.1107673556
H 2.0231239295 3.7581028882 0.0200012330
H -3.4419078040 4.0623247063 -0.0094319599
H -5.8206895547 2.9403248582 -0.0134683793
H -4.7136154696 -1.7403016094 0.0129656920
H -6.5445279770 -3.3230537413 0.0125246327
H -11.2161703302 -3.0927431480 -0.0930377240
H -10.6918825898 -1.6676876498 -1.0228259605
H -10.8099970988 -1.5869560478 0.7557928851
H -8.3940406006 -4.4352210744 -0.9595318674
H -9.8500917974 -4.6870130838 0.0370208440
H -8.2741272000 -4.4614680519 0.8202691150
H -9.3608206449 -0.0296547414 0.0058310554
H -7.5109824412 1.5351115096 0.0043605112
H 5.4650479041 -2.8198252158 0.1913914533
H 7.8168583589 -3.3947717327 0.1608090640
58
step=11 E=-2401.206165203033 Eh
C 10.2850147114 -3.0508842868 -0.0186461163
N 9.8850275908 -1.6659619284 0.0393882930
C 10.8626387592 -0.6378296384 -0.2230741631
C 8.5419553608 -1.3439289496 0.0290378781
C 8.1035475435 -0.0058850341 -0.0612723923
C 6.7509366501 0.3079120721 -0.0517104119
C 5.7594415300 -0.6769666979 0.0402034523
C 4.3221545012 -0.3510483308 0.0474972712
C 3.2500303722 -1.2098367995 0.0777396746
C 1.9913470191 -0.5473040114 0.0746941275
C 2.1123878436 0.8164676216 0.0423898964
C 1.0114054635 1.7826067840 0.0299986446
C 1.1139282820 3.1488358439 0.0198616541
S -0.4493530103 3.8590443510 0.0086737733
C -1.1454797825 2.2683799468 0.0193939591
C -2.5872389680 2.0542661488 0.0165172671
C -3.6067077791 2.9731304072 0.0085200421
C -4.8897582782 2.3645807981 0.0079469837
C -4.8357170338 0.9884569058 0.0148869965
C -5.9534034252 0.0279308674 0.0168850812
C -5.7352000987 -1.3561080047 0.0106054236
C -6.7826196103 -2.2656278166 0.0126401901
C -8.1254969141 -1.8308933959 0.0258773586
N -9.1721404580 -2.7267593591 0.0382262006
C -10.5280261792 -2.2451363459 -0.0651490927
C -8.9032170812 -4.1426527557 -0.0251250206
C -8.3476247779 -0.4357329145 0.0248009816
C -7.2872093722 0.4588483986 0.0224417490
S -3.1962482046 0.4414988167 0.0227825581
N -0.2761932111 1.3041656518 0.0296069879
S 3.7719796328 1.2917940780 0.0157359755
C 6.1972754875 -2.0060274383 0.1188731280
C 7.5436930317 -2.3393595339 0.1092302121
H 9.8795524823 -3.6240687474 0.8319532612
H 11.3795298431 -3.1155549183 0.0372746495
H 9.9589542313 -3.5548410167 -0.9494729048
H 11.8690717036 -1.0742479692 -0.1813334963
H 10.8206019234 0.1648539053 0.5328532118
H 10.7340136250 -0.1691243758 -1.2178767744
H 8.8246304439 0.8086426437 -0.1383861648
H 6.4650370438 1.3623822693 -0.1232141308
H 3.3551735913 -2.2957350972 0.0983638160
H 1.0175851838 -1.0386984120 0.0940906322
H 2.0183974319 3.7564372616 0.0199648773
H -3.4418560503 4.0535263941 0.0034464630
H -5.8219749384 2.9313830948 0.0021550915
H -4.7127076643 -1.7472194983 0.0005842142
H -6.5446589251 -3.3297639285 0.0024420717
H -11.2176240850 -3.0989334152 -0.0651313334
H -10.7018720218 -1.6696862234 -0.9937714645
H -10.8015213487 -1.5970658183 0.7863975773
H -8.3967337955 -4.4382446004 -0.9636558790
H -9.8490196291 -4.6960566773 0.0370818177
H -8.2697614335 -4.4746831017 0.8156111797
H -9.3634502416 -0.0384623028 0.0292483391
H -7.5139846528 1.5285198494 0.0249925415
H 5.4656633450 -2.8152786791 0.1896865538
H 7.8171493966 -3.3934867664 0.1677340980
58
step=12 E=-2401.206187724851 Eh
C 10.2902758098 -3.0470151230 0.0053131586
N 9.8859342394 -1.6631190237 0.0554509934
C 10.8639754041 -0.6322296685 -0.1933545604
C 8.5424978682 -1.3439673099 0.0380099040
C 8.1015886684 -0.0070505278 -0.0571402852
C 6.7482027027 0.3036840441 -0.0535237925
C 5.7590136788 -0.6836149760 0.0368623934
C 4.3214922113 -0.3586360234 0.0397336705
C 3.2493776024 -1.2176523437 0.0635044662
C 1.9911850733 -0.5541555820 0.0601526485
C 2.1114531780 0.8097775632 0.0337932267
C 1.0111238075 1.7768691175 0.0244673353
C 1.1139984989 3.1430841412 0.0191266729
S -0.4490990784 3.8538437455 0.0120779736
C -1.1455525545 2.2635890013 0.0180381881
C -2.5874232688 2.0495439608 0.0176978028
C -3.6075690042 2.9675788789 0.0179481994
C -4.8902085977 2.3578728685 0.0190877564
C -4.8355898135 0.9817674087 0.0191703818
C -5.9521749725 0.0196707789 0.0218796439
C -5.7341547678 -1.3644048285 0.0057894465
C -6.7802928871 -2.2754772293 0.0094230234
C -8.1231953763 -1.8414418099 0.0345243545
N -9.1695250414 -2.7375612813 0.0489886535
C -10.5269692520 -2.2565010287 -0.0352987330
C -8.9001545797 -4.1528712570 -0.0244907609
C -8.3455868747 -0.4463439633 0.0432507167
C -7.2862181340 0.4495511031 0.0388452170
S -3.1955858130 0.4364642432 0.0181343436
N -0.2766283868 1.2989069647 0.0235424305
S 3.7711851493 1.2843226366 0.0131379212
C 6.1988032278 -2.0118926085 0.1194805316
C 7.5460803501 -2.3415777483 0.1155719394
H 9.8808809052 -3.6185599510 0.8552705401
H 11.3846435423 -3.1082282352 0.0683925014
H 9.9718394022 -3.5552876774 -0.9257941438
H 11.8710387945 -1.0657815651 -0.1378438141
H 10.8091589934 0.1700891937 0.5622145923
H 10.7477029111 -0.1634547981 -1.1896966826
H 8.8211101084 0.8089958015 -0.1336455602
H 6.4599366322 1.3573517857 -0.1286345803
H 3.3542268087 -2.3037138624 0.0797673234
H 1.0172227665 -1.0453761523 0.0753826649
H 2.0186773904 3.7505125781 0.0205944883
H -3.4436031429 4.0481917231 0.0179951303
H -5.8228571561 2.9241015806 0.0196204391
H -4.7115014151 -1.7548675766 -0.0134391553
H -6.5414359655 -3.3393962376 -0.0085248292
H -11.2158231326 -3.1109407960 -0.0313692013
H -10.7128283896 -1.6761684386 -0.9586025305
H -10.7905740283 -1.6131643414 0.8229921874
H -8.3982461031 -4.4421136191 -0.9674510884
H -9.8454587025 -4.7070980630 0.0385467182
H -8.2622715751 -4.4903037713 0.8108904619
H -9.3617003330 -0.0498637543 0.0569688682
H -7.5139255056 1.5190434646 0.0493506047
H 5.4687161197 -2.8226543679 0.1895047192
H 7.8220192472 -3.3949443129 0.1772042293
58
step=13 E=-2401.206204314442 Eh
C 10.2888817465 -3.0492858524 0.0414280987
N 9.8829247547 -1.6656497580 0.0812862520
C 10.8619751217 -0.6319533207 -0.1492171084
C 8.5400437077 -1.3475400693 0.0540533473
C 8.0990551954 -0.0111322362 -0.0469778245
C 6.7455444283 0.2983406863 -0.0520406172
C 5.7565103132 -0.6892113974 0.0350013061
C 4.3192708854 -0.3646667186 0.0312357594
C 3.2467242576 -1.2233393769 0.0445385912
C 1.9892748602 -0.5589900420 0.0405176669
C 2.1094498377 0.8051556262 0.0237130981
C 1.0104874816 1.7735529810 0.0185604470
C 1.1108258875 3.1399474758 0.0196861770
S -0.4524854498 3.8505477476 0.0180892341
C -1.1476964913 2.2594084632 0.0174533555
C -2.5889483719 2.0426767524 0.0202054846
C -3.6116471639 2.9577549915 0.0310476184
C -4.8929278069 2.3456615609 0.0343394747
C -4.8357343114 0.9697191207 0.0256965398
C -5.9495769362 0.0047979729 0.0294680490
C -5.7308027193 -1.3787466399 -0.0006592568
C -6.7760147830 -2.2907404253 0.0054566559
C -8.1193625879 -1.8590170851 0.0474722622
N -9.1641492416 -2.7569733214 0.0648997668
C -10.5246475573 -2.2808363370 0.0074352694
C -8.8923385204 -4.1709083226 -0.0233064511
C -8.3433738143 -0.4643582502 0.0702585412
C -7.2841535506 0.4315499957 0.0629141691
S -3.1941885837 0.4283213137 0.0134706692
N -0.2772455911 1.2958985089 0.0168451378
S 3.7696099198 1.2787933688 0.0132480042
C 6.1966445110 -2.0170397087 0.1224236067
C 7.5439759720 -2.3457784234 0.1269910575
H 9.8730754395 -3.6173483895 0.8906155422
H 11.3826234743 -3.1092071965 0.1131346833
H 9.9784409379 -3.5619329881 -0.8896841178
H 11.8691247120 -1.0623934262 -0.0767432488
H 10.7911335619 0.1688587533 0.6064435133
H 10.7615044516 -0.1621399203 -1.1466427404
H 8.8182449180 0.8051421027 -0.1218014024
H 6.4567077793 1.3513318096 -0.1315637494
H 3.3509263184 -2.3093365404 0.0537330398
H 1.0153108383 -1.0498759799 0.0487724184
H 2.0146848014 3.7480771925 0.0229119253
H -3.4501627135 4.0384735010 0.0376133710
H -5.8264210674 2.9100058584 0.0427621790
H -4.7081372783 -1.7677442103 -0.0331810439
H -6.5360626262 -3.3539585859 -0.0235177258
H -11.2097954892 -3.1380571468 0.0160845204
H -10.7285650617 -1.6938574622 -0.9076377979
H -10.7759359436 -1.6457397665 0.8753061212
H -8.3969964195 -4.4495479968 -0.9726082340
H -9.8358648798 -4.7277567767 0.0409443126
H -8.2474452361 -4.5149251875 0.8039561997
H -9.3593348557 -0.0686591928 0.0972863002
H -7.5126736525 1.5004532649 0.0849648134
H 5.4667530604 -2.8278699211 0.1904128054
H 7.8205086548 -3.3986210552 0.1922332810
58
step=14 E=-2401.206222594489 Eh
C 10.2957695957 -3.0451478813 0.0805186949
N 9.8839832940 -1.6630559730 0.1078070194
C 10.8623964278 -0.6260754510 -0.1085893808
C 8.5407987469 -1.3488882666 0.0721903918
C 8.0975826804 -0.0138403656 -0.0370663562
C 6.7435098920 0.2925108411 -0.0500932808
C 5.7562016120 -0.6966991902 0.0365813369
C 4.3184870724 -0.3753453825 0.0264274805
C 3.2476248565 -1.2362015437 0.0300454101
C 1.9890434589 -0.5742682856 0.0248721916
C 2.1063434562 0.7902428199 0.0166715039
C 1.0062223196 1.7570482262 0.0148731441
C 1.1071791454 3.1233645346 0.0204524819
S -0.4564301586 3.8333377406 0.0239617751
C -1.1522525647 2.2420180775 0.0189143665
C -2.5933249789 2.0249563812 0.0246793430
C -3.6158203945 2.9401269032 0.0446605888
C -4.8971559100 2.3285165034 0.0500500843
C -4.8408152702 0.9526186270 0.0340302085
C -5.9548077527 -0.0119192421 0.0386331980
C -5.7379370940 -1.3953806002 -0.0061385418
C -6.7813143025 -2.3093934089 0.0015908039
C -8.1235587491 -1.8762670620 0.0603111648
N -9.1673318879 -2.7752367984 0.0792700633
C -10.5283190647 -2.2981651104 0.0483429305
C -8.8963776381 -4.1883343513 -0.0248402377
C -8.3467397498 -0.4817258847 0.0980520894
C -7.2885884170 0.4153253036 0.0886553758
S -3.1993393028 0.4107599680 0.0124593376
N -0.2814168015 1.2790100418 0.0134281705
S 3.7656640737 1.2671804674 0.0161859237
C 6.1989176800 -2.0231606240 0.1312923459
C 7.5467508902 -2.3492756704 0.1437946822
H 9.8774823449 -3.6090594892 0.9313053388
H 11.3892728085 -3.0999952589 0.1583033535
H 9.9927211170 -3.5654069861 -0.8485767441
H 11.8699623435 -1.0523660214 -0.0203153050
H 10.7764954799 0.1749141178 0.6452274496
H 10.7753279346 -0.1574762293 -1.1077524086
H 8.8152125512 0.8035837837 -0.1128431851
H 6.4526316598 1.3443127346 -0.1361430197
H 3.3539698436 -2.3219168118 0.0327563910
H 1.0161937784 -1.0671438001 0.0264374140
H 2.0109593105 3.7313906384 0.0241031385
H -3.4539393757 4.0206124989 0.0565060713
H -5.8302089379 2.8932091537 0.0649494279
H -4.7155790442 -1.7834633562 -0.0520663601
H -6.5415611083 -3.3722085605 -0.0390072353
H -11.2134895123 -3.1552092089 0.0600933293
H -10.7469375459 -1.7026117421 -0.8576330792
H -10.7651200714 -1.6712020601 0.9260533597
H -8.4072670130 -4.4565790478 -0.9801326726
H -9.8394499279 -4.7457977255 0.0391258288
H -8.2460653649 -4.5412315932 0.7944536492
H -9.3623597054 -0.0865526468 0.1383399932
H -7.5168854110 1.4838509960 0.1228781957
H 5.4704056603 -2.8350452202 0.1997264754
H 7.8253387150 -3.4011220394 0.2145921079
58
step=15 E=-2401.206254140541 Eh
C 10.3077203955 -3.0370102896 0.1234344853
N 9.8903218824 -1.6563920028 0.1326946163
C 10.8665862173 -0.6160311699 -0.0769373082
C 8.5462907033 -1.3474952065 0.0920530115
C 8.0979035349 -0.0151281826 -0.0297351538
C 6.7425402367 0.2855181530 -0.0481393048
C 5.7591683069 -0.7071206202 0.0450389866
C 4.3201777865 -0.3910711356 0.0299787134
C 3.2525074511 -1.2558743893 0.0263107808
C 1.9916456613 -0.5979597799 0.0197224993
C 2.1037395456 0.7669586804 0.0177808182
C 1.0007676513 1.7306387369 0.0178451344
C 1.1007104401 3.0970402073 0.0243041143
S -0.4637900915 3.8046562463 0.0313896729
C -1.1576451450 2.2123184028 0.0260134895
C -2.5988958513 1.9958450884 0.0341293529
C -3.6204147138 2.9119917537 0.0599507995
C -4.9023745923 2.3016194176 0.0666467935
C -4.8474507689 0.9257455798 0.0459612681
C -5.9631759929 -0.0370541700 0.0504490673
C -5.7493815487 -1.4205319149 -0.0090819811
C -6.7963087770 -2.3305654090 -0.0014095965
C -8.1373340170 -1.8955445953 0.0718222957
N -9.1832970274 -2.7918695666 0.0895198038
C -10.5438205480 -2.3122370334 0.0834371429
C -8.9161141407 -4.2044435767 -0.0307330551
C -8.3568808777 -0.5009999842 0.1250217481
C -7.2956685060 0.3925374443 0.1155443199
S -3.2065742186 0.3823158251 0.0191798329
N -0.2860860356 1.2501899842 0.0182165252
S 3.7613895297 1.2494603406 0.0256589663
C 6.2068069946 -2.0310792619 0.1517793691
C 7.5560151959 -2.3513107323 0.1698253890
H 9.8906397961 -3.5924504320 0.9805948509
H 11.4014160054 -3.0863554884 0.2027484905
H 10.0080118785 -3.5698748979 -0.7995306523
H 11.8750197057 -1.0373360023 0.0249595704
H 10.7683350570 0.1881556992 0.6720821507
H 10.7892203132 -0.1522843404 -1.0792133248
H 8.8123422398 0.8045377888 -0.1122488260
H 6.4474718839 1.3353418960 -0.1447369261
H 3.3627671308 -2.3413076734 0.0238506598
H 1.0205016276 -1.0943549523 0.0158881766
H 2.0039197694 3.7061837214 0.0263488464
H -3.4573000959 3.9923671092 0.0747952036
H -5.8349330823 2.8672171703 0.0849245268
H -4.7284989078 -1.8111680957 -0.0673242781
H -6.5601294183 -3.3937462168 -0.0537160544
H -11.2303501768 -3.1682569584 0.0966053007
H -10.7747319572 -1.7072585515 -0.8132323765
H -10.7668098570 -1.6935856266 0.9707116593
H -8.4312032050 -4.4629097927 -0.9908233647
H -9.8604612820 -4.7601636603 0.0300529656
H -8.2634542757 -4.5684370171 0.7820340497
H -9.3710773839 -0.1033074802 0.1772114140
H -7.5207376570 1.4613627684 0.1621547306
H 5.4813885360 -2.8453234207 0.2263738373
H 7.8389372405 -3.4014166182 0.2500577032
58
step=16 E=-2401.206289067656 Eh
C 10.2973966148 -3.0503751311 0.1751064391
N 9.8825784611 -1.6690227232 0.1564417384
C 10.8610763400 -0.6326451691 -0.0634860406
C 8.5389296488 -1.3583157130 0.1179200047
C 8.0917148394 -0.0274100531 -0.0242419558
C 6.7366262844 0.2750933468 -0.0428961809
C 5.7518788532 -0.7143584861 0.0701239980
C 4.3123239183 -0.3994608698 0.0532022146
C 3.2459407461 -1.2657626445 0.0457232286
C 1.9832565969 -0.6107590243 0.0375256023
C 2.0940548480 0.7541559033 0.0385139832
C 0.9884497806 1.7150285602 0.0374612557
C 1.0827921388 3.0818610456 0.0384468685
S -0.4835667738 3.7846742393 0.0448259028
C -1.1714176473 2.1894498676 0.0462872216
C -2.6123294924 1.9700839159 0.0545652244
C -3.6355702528 2.8844691043 0.0787137151
C -4.9164491438 2.2718708156 0.0845950674
C -4.8591498577 0.8960805056 0.0651416705
C -5.9732842206 -0.0687910560 0.0674792943
C -5.7551082036 -1.4508866654 -0.0080261454
C -6.8006740354 -2.3625281125 -0.0043613327
C -8.1426628824 -1.9322155497 0.0797296282
N -9.1869011922 -2.8304081277 0.0906665158
C -10.5480471223 -2.3525991286 0.1051300196
C -8.9178956852 -4.2411408016 -0.0465563690
C -8.3653346764 -0.5390221321 0.1503826341
C -7.3063385712 0.3572765200 0.1453816402
S -3.2173675964 0.3556572288 0.0418705637
N -0.2968788507 1.2302659753 0.0414168137
S 3.7508782100 1.2400255655 0.0525784628
C 6.1987651769 -2.0366599315 0.1980604497
C 7.5475217069 -2.3592192539 0.2169147211
H 9.8871189504 -3.5860917597 1.0482597412
H 11.3917688497 -3.1000106031 0.2450850749
H 9.9884411357 -3.6031398473 -0.7329330237
H 11.8686680048 -1.0544654124 0.0450709095
H 10.7630951545 0.1810339452 0.6754666352
H 10.7866380584 -0.1808484252 -1.0714750365
H 8.8071661372 0.7895577003 -0.1244199469
H 6.4428990504 1.3235767784 -0.1577024706
H 3.3584344160 -2.3510857490 0.0395354351
H 1.0129653940 -1.1091354406 0.0299878397
H 1.9840302866 3.6941905108 0.0359355054
H -3.4742402133 3.9652819398 0.0918466116
H -5.8501651982 2.8358866003 0.0994328971
H -4.7335437134 -1.8384348592 -0.0768680539
H -6.5627754200 -3.4247330352 -0.0692570367
H -11.2335182301 -3.2096279828 0.1154540572
H -10.7891578831 -1.7375253075 -0.7819829201
H -10.7625293195 -1.7444492917 1.0018731483
H -8.4313746080 -4.4863473230 -1.0092890095
H -9.8619076207 -4.7984296374 0.0053237070
H -8.2657043890 -4.6153011555 0.7622003420
H -9.3803064381 -0.1444048257 0.2124996137
H -7.5337212933 1.4250169174 0.2059503929
H 5.4723166373 -2.8483882212 0.2901130401
H 7.8290769028 -3.4083736128 0.3142181146
58
step=17 E=-2401.206328348806 Eh
C 10.2854837670 -3.0653558497 0.2297430722
N 9.8710669627 -1.6845614601 0.1815073890
C 10.8499727246 -0.6527283460 -0.0574839904
C 8.5273812526 -1.3733158605 0.1465394308
C 8.0806278002 -0.0449057929 -0.0188645890
C 6.7257593173 0.2586989484 -0.0366673464
C 5.7408142438 -0.7274658206 0.1012160240
C 4.3012264948 -0.4126065913 0.0829334979
C 3.2358672872 -1.2800582117 0.0708494312
C 1.9722043883 -0.6267584513 0.0615965099
C 2.0823949473 0.7381509471 0.0661009044
C 0.9746940057 1.6965453161 0.0629219237
C 1.0660826252 3.0634946535 0.0581447781
S -0.5021561197 3.7619153562 0.0604898974
C -1.1870550466 2.1649375099 0.0689397871
C -2.6270989869 1.9400667559 0.0756763690
C -3.6531248656 2.8516886501 0.0939810748
C -4.9321462068 2.2355293969 0.0975828774
C -4.8698986237 0.8598535937 0.0823932375
C -5.9823800604 -0.1067975758 0.0819491358
C -5.7627307589 -1.4875695199 -0.0100838341
C -6.8082963300 -2.3991514173 -0.0115199924
C -8.1505017108 -1.9713011383 0.0825277594
N -9.1934598903 -2.8709484342 0.0856437154
C -10.5545704355 -2.3941851586 0.1166002869
C -8.9238905161 -4.2799118155 -0.0680230220
C -8.3747339730 -0.5793808653 0.1712102080
C -7.3154734805 0.3166336227 0.1719817971
S -3.2267710458 0.3236546490 0.0662584906
N -0.3096439235 1.2087200167 0.0684656017
S 3.7386532639 1.2264366763 0.0858954404
C 6.1870062970 -2.0472164854 0.2543138979
C 7.5356346604 -2.3708086620 0.2723229273
H 9.8863038277 -3.5794076791 1.1210744322
H 11.3806508498 -3.1141181980 0.2862255589
H 9.9645724776 -3.6398176255 -0.6603483442
H 11.8574387508 -1.0746709797 0.0516089969
H 10.7570541926 0.1716734489 0.6702778092
H 10.7712501745 -0.2152967711 -1.0713833804
H 8.7966292188 0.7688057939 -0.1395843528
H 6.4322045573 1.3047225056 -0.1724319316
H 3.3498387742 -2.3652050169 0.0600136999
H 1.0025593401 -1.1263514557 0.0499671359
H 1.9659955516 3.6777557880 0.0525734577
H -3.4949516903 3.9330108990 0.1034146549
H -5.8677741469 2.7965539457 0.1058219135
H -4.7412962371 -1.8735100010 -0.0889543107
H -6.5703369813 -3.4604563244 -0.0891861219
H -11.2396088606 -3.2516082648 0.1218657104
H -10.8025671655 -1.7687967510 -0.7613311783
H -10.7623956136 -1.7968375712 1.0221517571
H -8.4352413585 -4.5124874009 -1.0326922034
H -9.8678931980 -4.8379937024 -0.0256335182
H -8.2732396601 -4.6643390326 0.7372533843
H -9.3895581567 -0.1860205252 0.2430463495
H -7.5429208556 1.3833813267 0.2475030306
H 5.4600099861 -2.8556494684 0.3686319799
H 7.8166179291 -3.4179511833 0.3905615201
58
step=18 E=-2401.206376392421 Eh
C 10.2798067520 -3.0736582425 0.2902857897
N 9.8642729511 -1.6943564008 0.2160605459
C 10.8411839494 -0.6631416889 -0.0330131539
C 8.5202100626 -1.3855166950 0.1766218977
C 8.0715296071 -0.0606625385 -0.0103721120
C 6.7162667502 0.2405267022 -0.0338591199
C 5.7326865629 -0.7443866088 0.1210589945
C 4.2924626605 -0.4331667421 0.0972339580
C 3.2291427748 -1.3028240786 0.0735546906
C 1.9640482708 -0.6523617577 0.0637120917
C 2.0710436343 0.7127845423 0.0782824825
C 0.9616834735 1.6692165302 0.0758510414
C 1.0509252809 3.0362804254 0.0727975727
S -0.5181805272 3.7329482164 0.0739547899
C -1.2005515852 2.1349155932 0.0803734790
C -2.6403294283 1.9088539284 0.0868135934
C -3.6663662902 2.8204906272 0.1046870545
C -4.9450116313 2.2036846299 0.1071694708
C -4.8821869395 0.8279659036 0.0916152571
C -5.9943183093 -0.1388989681 0.0897112831
C -5.7744842988 -1.5179748542 -0.0237672156
C -6.8185959537 -2.4312023908 -0.0280543729
C -8.1601823912 -2.0057562168 0.0840362945
N -9.2024030566 -2.9063603419 0.0835245864
C -10.5634678296 -2.4319471512 0.1378281392
C -8.9333426184 -4.3129686517 -0.0909165932
C -8.3844108923 -0.6153260258 0.1950326634
C -7.3265935923 0.2823504403 0.1989004556
S -3.2390633771 0.2920803856 0.0756714076
N -0.3219847278 1.1796876369 0.0791246306
S 3.7261945005 1.2045065765 0.1087224333
C 6.1810219625 -2.0604011867 0.2972573094
C 7.5301270275 -2.3821174748 0.3203238817
H 9.8859481370 -3.5702994299 1.1939195059
H 11.3752535799 -3.1209442833 0.3410913821
H 9.9541857916 -3.6655607819 -0.5864286334
H 11.8493567688 -1.0823316643 0.0795488818
H 10.7471024667 0.1683432369 0.6866024631
H 10.7612745028 -0.2360247003 -1.0510909666
H 8.7866804592 0.7516883087 -0.1442531133
H 6.4209513646 1.2833825753 -0.1883609293
H 3.3458492533 -2.3875279747 0.0537270896
H 0.9956915599 -1.1540820710 0.0439133007
H 1.9500513002 3.6515697144 0.0689112450
H -3.5085308157 3.9018076809 0.1142993415
H -5.8809235759 2.7641795356 0.1138614416
H -4.7534368159 -1.9012981244 -0.1181316268
H -6.5802193462 -3.4910097155 -0.1223761179
H -11.2474227472 -3.2902079834 0.1394263162
H -10.8228153949 -1.7946512700 -0.7281721666
H -10.7607552294 -1.8477041083 1.0541764205
H -8.4490310878 -4.5315242313 -1.0609147310
H -9.8770019778 -4.8718847904 -0.0526436559
H -8.2790418629 -4.7088268991 0.7058807053
H -9.3987539432 -0.2241786475 0.2827455163
H -7.5541081124 1.3475245144 0.2936125553
H 5.4548311027 -2.8669915830 0.4281151375
H 7.8125884321 -3.4264270981 0.4583918121
58
step=19 E=-2401.206421772893 Eh
C 10.2826528686 -3.0728509232 0.3423646907
N 9.8609928574 -1.6967207049 0.2495770679
C 10.8356191936 -0.6649543978 -0.0045879622
C 8.5160279522 -1.3933420341 0.2003392851
C 8.0646172476 -0.0721706724 -0.0043132149
C 6.7086958618 0.2244482928 -0.0373999225
C 5.7277074514 -0.7614166050 0.1263449349
C 4.2872713719 -0.4534231608 0.0947341953
C 3.2255501895 -1.3245713808 0.0576494638
C 1.9598687806 -0.6756760453 0.0472119192
C 2.0643899847 0.6896699165 0.0737322011
C 0.9546313935 1.6455424647 0.0738972996
C 1.0428325982 3.0126798731 0.0782097488
S -0.5265036148 3.7095185571 0.0817366001
C -1.2073730126 2.1115901196 0.0786139934
C -2.6471618365 1.8859322801 0.0856073578
C -3.6732385863 2.7972050012 0.1074274438
C -4.9519964867 2.1804379840 0.1095104804
C -4.8889557291 0.8047862225 0.0895487232
C -6.0008776959 -0.1620940211 0.0867348679
C -5.7843882202 -1.5397502671 -0.0481208825
C -6.8277939304 -2.4538457054 -0.0536310440
C -8.1673378626 -2.0284958708 0.0793173183
N -9.2097559148 -2.9289671431 0.0786930567
C -10.5698339780 -2.4553327707 0.1560848715
C -8.9433174797 -4.3331786870 -0.1168967486
C -8.3891022992 -0.6394571376 0.2120398789
C -7.3314676385 0.2582658513 0.2166504098
S -3.2457597841 0.2691182415 0.0694482584
N -0.3287581981 1.1558321773 0.0726559246
S 3.7186235759 1.1831946182 0.1161513326
C 6.1785973399 -2.0739282235 0.3209742773
C 7.5285873115 -2.3912117022 0.3528657092
H 9.8904893520 -3.5595076594 1.2521469163
H 11.3782206201 -3.1147303850 0.3942381883
H 9.9601300516 -3.6771258200 -0.5269363707
H 11.8445318901 -1.0810463312 0.1122788191
H 10.7382691228 0.1711779824 0.7092459785
H 10.7561369730 -0.2451760275 -1.0255974356
H 8.7781738578 0.7404909115 -0.1439950145
H 6.4104442208 1.2641445137 -0.2062126712
H 3.3443211371 -2.4087904051 0.0284132582
H 0.9923054819 -1.1782931219 0.0184177756
H 1.9416157332 3.6282067360 0.0793065513
H -3.5156225746 3.8783884808 0.1204532933
H -5.8879865503 2.7406115842 0.1188000826
H -4.7646904898 -1.9218689365 -0.1591801113
H -6.5905535508 -3.5122162821 -0.1649181437
H -11.2538699847 -3.3134298438 0.1546423591
H -10.8397555937 -1.8062470180 -0.6978560413
H -10.7553883677 -1.8837462579 1.0827207138
H -8.4687195970 -4.5392982224 -1.0943112361
H -9.8867855770 -4.8922467288 -0.0770538177
H -8.2816769328 -4.7398979649 0.6682760072
H -9.4020543981 -0.2493419173 0.3172187407
H -7.5571130377 1.3219424029 0.3303211324
H 5.4536798978 -2.8799497644 0.4615479845
H 7.8136836102 -3.4324746387 0.5071564750
58
step=20 E=-2401.206454892872 Eh
C 10.2756572310 -3.0759858912 0.3909111793
N 9.8553041796 -1.7010462159 0.2784806096
C 10.8291372661 -0.6701222769 0.0182846636
C 8.5105548287 -1.3995985600 0.2192589618
C 8.0581304434 -0.0818007290 -0.0036910023
C 6.7020083341 0.2123246080 -0.0460477983
C 5.7225488897 -0.7734416146 0.1267072314
C 4.2825857455 -0.4657314694 0.0874782869
C 3.2217507973 -1.3374631908 0.0393647444
C 1.9566223450 -0.6878414598 0.0276559839
C 2.0600802190 0.6774829557 0.0640722421
C 0.9508308722 1.6337941137 0.0670449619
C 1.0409790624 3.0007921821 0.0789106534
S -0.5283231209 3.6981651481 0.0868079610
C -1.2107525594 2.1016580417 0.0738616478
C -2.6504321328 1.8752929053 0.0816429241
C -3.6772151613 2.7853635475 0.1088968621
C -4.9551718974 2.1666811843 0.1106402016
C -4.8915983318 0.7912404390 0.0848039418
C -6.0013382054 -0.1779482205 0.0805353097
C -5.7837818170 -1.5531287140 -0.0762424719
C -6.8246149543 -2.4701991604 -0.0834365739
C -8.1631518243 -2.0494943494 0.0708422018
N -9.2037897107 -2.9519521001 0.0699889205
C -10.5637029908 -2.4825289119 0.1713528188
C -8.9368855251 -4.3525107429 -0.1487172632
C -8.3860422286 -0.6629398852 0.2258031960
C -7.3311637491 0.2378132213 0.2313853124
S -3.2476974280 0.2579096321 0.0602696934
N -0.3327630909 1.1449647941 0.0625304465
S 3.7138425985 1.1706414772 0.1176687499
C 6.1737018872 -2.0830716433 0.3399235667
C 7.5241023227 -2.3970347301 0.3806767103
H 9.8810564509 -3.5500961650 1.3062561801
H 11.3710042275 -3.1182103224 0.4457455606
H 9.9544162653 -3.6914417169 -0.4709520393
H 11.8383037865 -1.0839494455 0.1402706991
H 10.7293602216 0.1716865644 0.7251772679
H 10.7510539745 -0.2586256840 -1.0061216710
H 8.7710522532 0.7301814829 -0.1499558982
H 6.4022473878 1.2490862362 -0.2294527477
H 3.3413696677 -2.4213666642 0.0026732154
H 0.9890733175 -1.1898490219 -0.0088238536
H 1.9401500136 3.6156014915 0.0841321407
H -3.5210241913 3.8666257244 0.1261918863
H -5.8917067031 2.7257215931 0.1233734299
H -4.7645301432 -1.9309744745 -0.2043073228
H -6.5860148703 -3.5262218183 -0.2125393751
H -11.2460173124 -3.3419273288 0.1661725158
H -10.8457039874 -1.8215719386 -0.6694719183
H -10.7384691572 -1.9250199056 1.1085813151
H -8.4734479294 -4.5437613826 -1.1344396857
H -9.8787276555 -4.9140798187 -0.1060729884
H -8.2654212045 -4.7690921196 0.6228295635
H -9.3985883654 -0.2770369922 0.3483763337
H -7.5577005277 1.2990813971 0.3640468513
H 5.4490583689 -2.8876524674 0.4898288865
H 7.8106213975 -3.4354200756 0.5508097753
58
step=21 E=-2401.206498506745 Eh
C 10.2821496872 -3.0715496962 0.4373378279
N 9.8583861861 -1.6996060117 0.3037156457
C 10.8317428080 -0.6708006543 0.0333079410
C 8.5132495168 -1.4018243545 0.2371700176
C 8.0590318826 -0.0880544073 -0.0053165176
C 6.7023724088 0.2027690234 -0.0550203896
C 5.7243323226 -0.7823396287 0.1295115923
C 4.2838951786 -0.4777226215 0.0837550957
C 3.2244607249 -1.3506398740 0.0264684753
C 1.9584828034 -0.7025670923 0.0131993058
C 2.0592595589 0.6627048211 0.0576552507
C 0.9492183136 1.6181801603 0.0627584563
C 1.0389031696 2.9852192185 0.0803865204
S -0.5308948255 3.6813439491 0.0911986139
C -1.2124217246 2.0848769649 0.0711670845
C -2.6519749558 1.8575122978 0.0788043319
C -3.6792152608 2.7669375894 0.1097672495
C -4.9569087239 2.1475821833 0.1105213644
C -4.8923752052 0.7723600372 0.0801400388
C -6.0019020176 -0.1969976955 0.0739860236
C -5.7866403300 -1.5699263701 -0.1043564923
C -6.8280893519 -2.4863435506 -0.1135775004
C -8.1647091738 -2.0675638907 0.0609509636
N -9.2059954006 -2.9692118659 0.0590298511
C -10.5647249463 -2.5020211751 0.1839681544
C -8.9417614597 -4.3663453036 -0.1829917520
C -8.3851796248 -0.6832492797 0.2377272265
C -7.3299063604 0.2169814095 0.2448218254
S -3.2482160532 0.2397872262 0.0532367713
N -0.3339782585 1.1284839236 0.0558164114
S 3.7121244145 1.1573712246 0.1213313072
C 6.1774130375 -2.0880031151 0.3625762008
C 7.5282364513 -2.3988150340 0.4106921331
H 9.8889082905 -3.5326475713 1.3599446430
H 11.3776219870 -3.1102224814 0.4925095921
H 9.9622107139 -3.7008551541 -0.4149243594
H 11.8411361763 -1.0826738478 0.1600036504
H 10.7311363152 0.1786176818 0.7310545314
H 10.7539304057 -0.2703073291 -0.9954609500
H 8.7707586375 0.7232396368 -0.1611245147
H 6.4007672290 1.2360735375 -0.2544646820
H 3.3463286433 -2.4341081005 -0.0165724501
H 0.9916720588 -1.2055071905 -0.0300196380
H 1.9376264227 3.6007159770 0.0884467501
H -3.5236752888 3.8482748993 0.1302250244
H -5.8939011302 2.7059054905 0.1249034046
H -4.7689768126 -1.9461793694 -0.2489287401
H -6.5914193124 -3.5405236286 -0.2603153754
H -11.2468629842 -3.3615661264 0.1744309679
H -10.8571314315 -1.8287436200 -0.6434131874
H -10.7280852837 -1.9586164691 1.1315312054
H -8.4894239539 -4.5431015773 -1.1765513817
H -9.8832700953 -4.9283615128 -0.1382018830
H -8.2618030371 -4.7942693069 0.5748169047
H -9.3961675600 -0.2987450177 0.3766801358
H -7.5542511181 1.2762839356 0.3958966342
H 5.4537021537 -2.8912972253 0.5237477008
H 7.8163678435 -3.4339376024 0.5972484401
58
step=22 E=-2401.206541404738 Eh
C 10.2945957554 -3.0622925325 0.4753850509
N 9.8683110325 -1.6930142674 0.3230047741
C 10.8424706941 -0.6669694280 0.0437749479
C 8.5229977937 -1.3979947168 0.2500240762
C 8.0676362045 -0.0875821338 -0.0088759198
C 6.7105725872 0.2011299692 -0.0653253159
C 5.7333758173 -0.7833340881 0.1281078119
C 4.2924817225 -0.4809162369 0.0759214046
C 3.2344921426 -1.3549437098 0.0089071763
C 1.9672332192 -0.7088157907 -0.0059562190
C 2.0659905047 0.6561898654 0.0470457018
C 0.9541839801 1.6098746569 0.0547774127
C 1.0416272002 2.9770431343 0.0792682419
S -0.5288963447 3.6706123721 0.0927662117
C -1.2078964609 2.0730685228 0.0645407259
C -2.6474072867 1.8448270407 0.0709461238
C -3.6758580156 2.7529255643 0.1060235147
C -4.9533953139 2.1331679617 0.1051715161
C -4.8872022803 0.7582757094 0.0696823989
C -5.9964514521 -0.2115499816 0.0617519320
C -5.7829124715 -1.5817703054 -0.1381449760
C -6.8263184492 -2.4960228193 -0.1477428550
C -8.1608587101 -2.0797706630 0.0483665454
N -9.2017545602 -2.9815836110 0.0470876595
C -10.5583045838 -2.5151946400 0.1973639608
C -8.9404009698 -4.3751341698 -0.2180940352
C -8.3798551032 -0.6981779608 0.2462646628
C -7.3226107590 0.1998377572 0.2532518026
S -3.2425698672 0.2268899373 0.0403703122
N -0.3281944872 1.1180411512 0.0448352463
S 3.7178226608 1.1528385639 0.1219841449
C 6.1875087940 -2.0857455346 0.3775706908
C 7.5385301894 -2.3942609387 0.4326617117
H 9.9013620321 -3.5119089786 1.4037456074
H 11.3901644950 -3.0980307139 0.5320266411
H 9.9765237802 -3.7036049702 -0.3686087133
H 11.8516595923 -1.0777908486 0.1759487089
H 10.7411914346 0.1898381231 0.7324976131
H 10.7664121009 -0.2768982351 -0.9892114505
H 8.7785558098 0.7230335123 -0.1725479159
H 6.4078861753 1.2315832345 -0.2782808954
H 3.3589956477 -2.4379674405 -0.0409373159
H 1.0011332349 -1.2127569231 -0.0564517788
H 1.9393027698 3.5943254384 0.0904570579
H -3.5210777897 3.8344461149 0.1302457619
H -5.8910500781 2.6906603537 0.1211943890
H -4.7671493138 -1.9564706800 -0.3001336757
H -6.5927120532 -3.5483821955 -0.3121617292
H -11.2413189326 -3.3741290949 0.1847667052
H -10.8614551845 -1.8297844066 -0.6160786708
H -10.7081736086 -1.9853570874 1.1549296836
H -8.5011954095 -4.5376116798 -1.2200395647
H -9.8812243207 -4.9380298630 -0.1686312692
H -8.2501628630 -4.8133011923 0.5244557097
H -9.3890798480 -0.3149700495 0.4020459130
H -7.5439902291 1.2571352600 0.4221801917
H 5.4643127621 -2.8880365788 0.5469098305
H 7.8275475513 -3.4267910757 0.6321270057
58
step=23 E=-2401.206584184269 Eh
C 10.3006941008 -3.0575881622 0.5122522988
N 9.8756276159 -1.6902077796 0.3404286213
C 10.8517676241 -0.6688384386 0.0508192036
C 8.5307147469 -1.3948249839 0.2621057667
C 8.0772897534 -0.0870027779 -0.0129327111
C 6.7205791908 0.2022900475 -0.0753210128
C 5.7417110457 -0.7786355265 0.1276206767
C 4.3008783421 -0.4769020388 0.0697498238
C 3.2446419182 -1.3520981527 -0.0080667416
C 1.9762033272 -0.7080622827 -0.0238849201
C 2.0735451391 0.6566368929 0.0390476061
C 0.9598228269 1.6080600327 0.0495955025
C 1.0452775514 2.9751745124 0.0804815574
S -0.5262894056 3.6659259446 0.0962379772
C -1.2032950447 2.0673230460 0.0598791211
C -2.6423998001 1.8365069924 0.0643301147
C -3.6719185626 2.7434035205 0.1019422650
C -4.9484450465 2.1216688094 0.0987426220
C -4.8806851613 0.7469863795 0.0594654501
C -5.9886786140 -0.2242490319 0.0495605910
C -5.7754335268 -1.5910944447 -0.1726059569
C -6.8179728477 -2.5063224041 -0.1826374638
C -8.1508911206 -2.0955485252 0.0356187068
N -9.1913379561 -2.9979873571 0.0355642291
C -10.5466405042 -2.5368756862 0.2113027605
C -8.9320116151 -4.3874724039 -0.2519644208
C -8.3689333406 -0.7170556041 0.2548912968
C -7.3129910893 0.1825550005 0.2623234635
S -3.2354241870 0.2177990768 0.0299603850
N -0.3218339752 1.1142241036 0.0365248976
S 3.7241893462 1.1556838093 0.1259673231
C 6.1941832090 -2.0783228022 0.3933851748
C 7.5447551844 -2.3878608169 0.4547074203
H 9.9071723305 -3.4936626120 1.4469753840
H 11.3962525276 -3.0936230417 0.5690705784
H 9.9816166787 -3.7103188445 -0.3225303727
H 11.8601245744 -1.0802425989 0.1874999197
H 10.7519317281 0.1956244623 0.7301829189
H 10.7767455226 -0.2898215080 -0.9863273933
H 8.7892899616 0.7209813415 -0.1849325112
H 6.4192565177 1.2302856031 -0.3016833026
H 3.3717562850 -2.4344720280 -0.0661210620
H 1.0109863781 -1.2129412466 -0.0824173172
H 1.9420094414 3.5938396881 0.0945223673
H -3.5184762134 3.8250863974 0.1290002685
H -5.8869895944 2.6777259152 0.1147974956
H -4.7611224962 -1.9616130782 -0.3525741787
H -6.5850875006 -3.5558273336 -0.3652525267
H -11.2280132804 -3.3971207050 0.1958157506
H -10.8625544780 -1.8405557441 -0.5878795056
H -10.6841311442 -2.0211996906 1.1784176605
H -8.5060191711 -4.5359114236 -1.2617676998
H -9.8715527750 -4.9520697082 -0.1974100844
H -8.2314150177 -4.8345135944 0.4754033394
H -9.3767129792 -0.3374633258 0.4278791757
H -7.5335705179 1.2369238896 0.4497986958
H 5.4695417319 -2.8775376286 0.5714099311
H 7.8322069952 -3.4182802115 0.6670234483
58
step=24 E=-2401.206641666905 Eh
C 10.3109898498 -3.0470250253 0.5499979634
N 9.8874612312 -1.6819380002 0.3567319033
C 10.8624874851 -0.6630528718 0.0546017049
C 8.5424857162 -1.3879014520 0.2744056489
C 8.0883623509 -0.0838524285 -0.0170327880
C 6.7316617362 0.2041047966 -0.0845956319
C 5.7534244542 -0.7750578127 0.1292838487
C 4.3123329851 -0.4757198469 0.0656926457
C 3.2584416416 -1.3522060442 -0.0261770851
C 1.9886573494 -0.7105867475 -0.0426235589
C 2.0830910322 0.6536209774 0.0334687568
C 0.9676016634 1.6029268924 0.0470822157
C 1.0495855248 2.9700329106 0.0845903877
S -0.5232148115 3.6577192952 0.1011537619
C -1.1968400766 2.0573698115 0.0561579529
C -2.6355150771 1.8240510221 0.0573638165
C -3.6658941138 2.7301060328 0.0952180171
C -4.9420749395 2.1079075244 0.0890033988
C -4.8722981132 0.7333307886 0.0477528661
C -5.9803601169 -0.2376606347 0.0362515160
C -5.7681020656 -1.6003094673 -0.2110005311
C -6.8096483260 -2.5166279841 -0.2206138401
C -8.1397540657 -2.1107495588 0.0231286381
N -9.1783499703 -3.0153325217 0.0248496695
C -10.5307723558 -2.5574025962 0.2289046574
C -8.9220091224 -4.4005755745 -0.2856030562
C -8.3567695497 -0.7360509650 0.2661137243
C -7.3018000267 0.1647427894 0.2734680859
S -3.2268533037 0.2048334507 0.0204383519
N -0.3131637391 1.1067039989 0.0297845019
S 3.7322913157 1.1551149751 0.1353031590
C 6.2064003572 -2.0708228854 0.4120992105
C 7.5571525124 -2.3791148952 0.4787122757
H 9.9182942193 -3.4676528011 1.4921713135
H 11.4065526660 -3.0838007790 0.6054702303
H 9.9895044881 -3.7124158109 -0.2737424421
H 11.8712514361 -1.0722550776 0.1945766176
H 10.7629190113 0.2092080725 0.7239939964
H 10.7859760251 -0.2961803285 -0.9867307539
H 8.8001651951 0.7222374517 -0.1984584445
H 6.4296941965 1.2287253775 -0.3248312302
H 3.3885896754 -2.4335728274 -0.0954010072
H 1.0248996698 -1.2168950738 -0.1116120066
H 1.9450714042 3.5903782118 0.1019220218
H -3.5130337610 3.8118011475 0.1237802035
H -5.8813171824 2.6628843111 0.1029976564
H -4.7558987577 -1.9658416753 -0.4118234345
H -6.5785272281 -3.5627855423 -0.4234701343
H -11.2120614693 -3.4176302263 0.2113164120
H -10.8596672663 -1.8494082646 -0.5546248706
H -10.6530193927 -2.0562132129 1.2056028222
H -8.5103262131 -4.5347655624 -1.3032718845
H -9.8600924009 -4.9669485473 -0.2252945694
H -8.2106559985 -4.8566492057 0.4255270164
H -9.3625487606 -0.3607310739 0.4588209679
H -7.5203593185 1.2156394538 0.4817592695
H 5.4816465879 -2.8676948663 0.6001083287
H 7.8449871933 -3.4066070672 0.7043486863
58
step=25 E=-2401.206720994842 Eh
C 10.3236193628 -3.0348344825 0.5929720886
N 9.9018511417 -1.6728125187 0.3753379397
C 10.8784599709 -0.6592724257 0.0605818836
C 8.5571840220 -1.3781297087 0.2896378701
C 8.1048146748 -0.0772773171 -0.0186765608
C 6.7483834737 0.2104147578 -0.0915288525
C 5.7690776285 -0.7651032472 0.1339945785
C 4.3281266938 -0.4668813747 0.0633009267
C 3.2778486807 -1.3446215376 -0.0527592235
C 2.0063909789 -0.7061051413 -0.0691108690
C 2.0971262253 0.6568634323 0.0301378331
C 0.9784951620 1.6022635533 0.0480421527
C 1.0563399197 2.9692474868 0.0955734163
S -0.5182981878 3.6526874681 0.1103784746
C -1.1871127234 2.0501776270 0.0519235968
C -2.6253749826 1.8145029083 0.0466600247
C -3.6567259911 2.7196282672 0.0816570772
C -4.9316291057 2.0950132429 0.0704819588
C -4.8609778098 0.7204249612 0.0292152155
C -5.9665088226 -0.2535348634 0.0167754468
C -5.7560241954 -1.6096106268 -0.2654445287
C -6.7944954048 -2.5295046144 -0.2714559249
C -8.1201848323 -2.1334655491 0.0104238898
N -9.1553498536 -3.0420868826 0.0178568037
C -10.5042805372 -2.5938851978 0.2633022057
C -8.9008669691 -4.4210619590 -0.3211337706
C -8.3363899684 -0.7647946180 0.2859009614
C -7.2837674484 0.1389285318 0.2903680168
S -3.2148395759 0.1945412289 0.0070868512
N -0.3008115251 1.1023910336 0.0222667594
S 3.7439330465 1.1612165749 0.1566950530
C 6.2202066471 -2.0572133981 0.4350582227
C 7.5708768286 -2.3655123668 0.5066334467
H 9.9330763868 -3.4375408033 1.5438902677
H 11.4192712196 -3.0724956238 0.6454450592
H 9.9984575737 -3.7147026996 -0.2172966895
H 11.8865582044 -1.0686032985 0.2047725941
H 10.7810073175 0.2213852928 0.7192332300
H 10.8020646801 -0.3051915731 -0.9850969279
H 8.8176062762 0.7256008639 -0.2101470659
H 6.4468834867 1.2315676206 -0.3464465126
H 3.4123042355 -2.4240554743 -0.1415477012
H 1.0447379341 -1.2136173730 -0.1558407846
H 1.9502252621 3.5916354703 0.1191099086
H -3.5051870123 3.8014658993 0.1106885027
H -5.8718057622 2.6484256163 0.0793527932
H -4.7474010613 -1.9661829041 -0.4977344717
H -6.5648324936 -3.5701656880 -0.5022404115
H -11.1823366673 -3.4566035831 0.2457030192
H -10.8552960377 -1.8726703009 -0.4982395380
H -10.6049570242 -2.1117195237 1.2519151980
H -8.5095090427 -4.5368064415 -1.3489734387
H -9.8355838798 -4.9918034945 -0.2513689885
H -8.1737053180 -4.8863587879 0.3677534274
H -9.3388842901 -0.3972329803 0.5082785669
H -7.5002753780 1.1840590859 0.5277188690
H 5.4939682788 -2.8501429412 0.6339861781
H 7.8576527058 -3.3901170798 0.7461939005
58
step=26 E=-2401.206831502456 Eh
C 10.3327622124 -3.0228099214 0.6491841773
N 9.9126265864 -1.6661733920 0.3973816584
C 10.8893184925 -0.6597572597 0.0609936772
C 8.5679732144 -1.3711614537 0.3116352003
C 8.1158413191 -0.0760296767 -0.0209037983
C 6.7599592677 0.2130752656 -0.0973804025
C 5.7813248942 -0.7575854431 0.1506764645
C 4.3405813151 -0.4606629764 0.0730714811
C 3.2943719309 -1.3386004660 -0.0727990212
C 2.0215237465 -0.7027246523 -0.0889780347
C 2.1078673488 0.6581924437 0.0389422800
C 0.9864927306 1.6002311637 0.0597362227
C 1.0604961062 2.9670349233 0.1142037928
S -0.5163164579 3.6459591328 0.1260043988
C -1.1806518845 2.0418779578 0.0545986844
C -2.6182842706 1.8017318498 0.0412673722
C -3.6545925529 2.7016158125 0.0662843082
C -4.9280020797 2.0739320498 0.0491148189
C -4.8497103747 0.6996302685 0.0134130380
C -5.9517694791 -0.2780684465 0.0002186250
C -5.7428268113 -1.6237381383 -0.3293423324
C -6.7756171470 -2.5501230353 -0.3319782733
C -8.0945558704 -2.1702768984 -0.0002462684
N -9.1253211097 -3.0841029636 0.0124218499
C -10.4690853707 -2.6530656792 0.3114402283
C -8.8726530216 -4.4536138349 -0.3639659854
C -8.3086738707 -0.8111339422 0.3202534676
C -7.2621337774 0.0998188058 0.3225878332
S -3.2015564800 0.1796487415 0.0051457468
N -0.2914224501 1.0969782888 0.0246662275
S 3.7518454158 1.1637484076 0.1954587662
C 6.2314956819 -2.0432974873 0.4788240865
C 7.5819411524 -2.3528549562 0.5530055804
H 9.9496932546 -3.3987299143 1.6141344651
H 11.4287422718 -3.0623052528 0.6922780714
H 9.9985136726 -3.7234823333 -0.1392550001
H 11.8974164905 -1.0685079000 0.2067627616
H 10.7971561394 0.2323703763 0.7049444462
H 10.8082349806 -0.3236097199 -0.9901367431
H 8.8297070511 0.7214018641 -0.2302094467
H 6.4580121712 1.2285347542 -0.3736293142
H 3.4335653273 -2.4152071854 -0.1858960228
H 1.0622385528 -1.2104309889 -0.1976407515
H 1.9528898902 3.5912824141 0.1431765235
H -3.5072106817 3.7840607129 0.0909982176
H -5.8708814953 2.6229469982 0.0467017442
H -4.7396485188 -1.9655547222 -0.6036153015
H -6.5472181268 -3.5820169558 -0.6002814104
H -11.1412887591 -3.5202762335 0.2916686055
H -10.8487490290 -1.9148744559 -0.4194324935
H -10.5427950408 -2.1977604709 1.3150324322
H -8.5057455897 -4.5438663573 -1.4032242918
H -9.8028351577 -5.0305392146 -0.2853541262
H -8.1270350441 -4.9310183803 0.2965358545
H -9.3061963852 -0.4568800527 0.5826276954
H -7.4760501749 1.1358076567 0.5995945173
H 5.5035838906 -2.8293515165 0.6981747712
H 7.8681023077 -3.3723396267 0.8142077198
58
step=27 E=-2401.206965909293 Eh
C 10.3285672255 -3.0172174284 0.7321369209
N 9.9127354220 -1.6703178334 0.4270625700
C 10.8907873653 -0.6799728116 0.0498809062
C 8.5685630903 -1.3716900186 0.3454522009
C 8.1190566071 -0.0869460571 -0.0286223037
C 6.7629847160 0.2011417815 -0.1045000086
C 5.7831701491 -0.7562132621 0.1869796611
C 4.3427167762 -0.4607616704 0.1033993521
C 3.3006227875 -1.3377973721 -0.0726577066
C 2.0271185757 -0.7034753794 -0.0897093779
C 2.1081795262 0.6547942730 0.0672359827
C 0.9846937653 1.5942806811 0.0875399036
C 1.0517627929 2.9613850184 0.1415423010
S -0.5283262216 3.6337327330 0.1477544232
C -1.1845853322 2.0269879703 0.0704611656
C -2.6204678042 1.7774617497 0.0487272986
C -3.6609353302 2.6729889194 0.0530872804
C -4.9291622297 2.0347796182 0.0294437558
C -4.8431545795 0.6607062433 0.0087308625
C -5.9379270791 -0.3247420747 -0.0061226858
C -5.7317701057 -1.6538187291 -0.3988122811
C -6.7576428371 -2.5879365946 -0.4018270320
C -8.0660627655 -2.2314881864 -0.0086383870
N -9.0885939308 -3.1544993627 0.0013615908
C -10.4226301006 -2.7458407138 0.3669414611
C -8.8381306200 -4.5084304409 -0.4288127472
C -8.2782895494 -0.8887032313 0.3757503394
C -7.2379072006 0.0293078360 0.3788385786
S -3.1926627349 0.1507443840 0.0266439480
N -0.2909226400 1.0859977175 0.0454426882
S 3.7492429144 1.1594011829 0.2545172846
C 6.2307751577 -2.0298752166 0.5611650934
C 7.5814804574 -2.3393053864 0.6338388853
H 9.9615452381 -3.3477456600 1.7198446507
H 11.4248399380 -3.0634153163 0.7552860510
H 9.9743591190 -3.7492171687 -0.0179733862
H 11.8982350375 -1.0911995779 0.1928696508
H 10.8136408743 0.2308221320 0.6694382166
H 10.7970333286 -0.3733840391 -1.0090163457
H 8.8338690885 0.6998297595 -0.2721666016
H 6.4596748090 1.2056551566 -0.4165430963
H 3.4447438705 -2.4108988139 -0.2102545179
H 1.0702507636 -1.2101531354 -0.2209949554
H 1.9414082022 3.5892314289 0.1728301231
H -3.5203286739 3.7565332534 0.0650229823
H -5.8761830115 2.5761279128 0.0065706888
H -4.7373754903 -1.9737934696 -0.7260497306
H -6.5325414021 -3.6062057146 -0.7202528399
H -11.0899103902 -3.6164537710 0.3374712513
H -10.8329168859 -1.9824840283 -0.3201001577
H -10.4623496894 -2.3306162622 1.3896767658
H -8.4988733905 -4.5595463598 -1.4798914982
H -9.7626983430 -5.0937989397 -0.3470741943
H -8.0725003173 -5.0044196299 0.1943666372
H -9.2677152189 -0.5544830620 0.6897725313
H -7.4459918695 1.0507418944 0.7094953536
H 5.5011647198 -2.8024779554 0.8194539894
H 7.8673664287 -3.3483273424 0.9329620008
58
step=28 E=-2401.207081194897 Eh
C 10.3478512508 -2.9883747188 0.8259826361
N 9.9273704116 -1.6648715198 0.4367781622
C 10.8966462424 -0.7068091075 -0.0348767920
C 8.5822506185 -1.3662062119 0.3749235277
C 8.1247128357 -0.1076179906 -0.0723019845
C 6.7679668296 0.1806558522 -0.1349473007
C 5.7967559157 -0.7540825572 0.2449143023
C 4.3553905846 -0.4645634897 0.1638847152
C 3.3179778514 -1.3450215077 -0.0214783931
C 2.0424301158 -0.7152216197 -0.0435066708
C 2.1174843130 0.6425710978 0.1219806295
C 0.9898099263 1.5771291608 0.1314484488
C 1.0504952688 2.9451979323 0.1696754533
S -0.5334531672 3.6092721361 0.1619838044
C -1.1802282504 1.9993706277 0.0958379510
C -2.6142595605 1.7411259924 0.0610609849
C -3.6604936298 2.6290838169 0.0239122862
C -4.9232868552 1.9796807039 -0.0094170985
C -4.8265621218 0.6065550357 0.0016091572
C -5.9119415932 -0.3885308330 -0.0186993989
C -5.7164569235 -1.6926788732 -0.4922132735
C -6.7384825882 -2.6311047500 -0.5071598070
C -8.0313468727 -2.3034835036 -0.0440424357
N -9.0500710876 -3.2306435893 -0.0508502356
C -10.3692286128 -2.8517549268 0.3914757106
C -8.8111586587 -4.5573467097 -0.5638756248
C -8.2329327732 -0.9868179417 0.4271686459
C -7.1956585917 -0.0653798467 0.4401303426
S -3.1739799445 0.1095475293 0.0686658375
N -0.2824486912 1.0615381541 0.0880300364
S 3.7551069787 1.1515475467 0.3255319428
C 6.2514280162 -1.9992788593 0.6982242368
C 7.6028197888 -2.3083726991 0.7581898156
H 10.0189321024 -3.2421325386 1.8493313934
H 11.4438509628 -3.0423365202 0.8083329096
H 9.9593759239 -3.7706849113 0.1472211319
H 11.9060078822 -1.1191905612 0.0898237745
H 10.8524290405 0.2390724669 0.5336423845
H 10.7613955419 -0.4605697135 -1.1048386842
H 8.8347519825 0.6584337957 -0.3858753885
H 6.4554494017 1.1611772700 -0.5083114940
H 3.4700100359 -2.4160536876 -0.1673022187
H 1.0877506158 -1.2233374809 -0.1847311635
H 1.9366882309 3.5780768313 0.1969266194
H -3.5276878263 3.7136027956 0.0089318254
H -5.8749268184 2.5102469502 -0.0700177945
H -4.7353763204 -1.9850114228 -0.8798098957
H -6.5235544652 -3.6284791783 -0.8920023322
H -11.0363208825 -3.7210204909 0.3326641906
H -10.8054388387 -2.0479571471 -0.2302232196
H -10.3700095785 -2.5022824928 1.4394065453
H -8.5097247745 -4.5477816087 -1.6275222328
H -9.7312673149 -5.1499786897 -0.4836694178
H -8.0227439277 -5.0847783137 0.0026978962
H -9.2093115455 -0.6772768455 0.8016027361
H -7.3895465742 0.9341926448 0.8396547010
H 5.5252306807 -2.7467358467 1.0303252400
H 7.8955720858 -3.2937865946 1.1222210276
58
step=29 E=-2401.207107820250 Eh
C 10.4253687568 -2.9092947751 0.8609114309
N 9.9767120109 -1.6173819324 0.4033545793
C 10.9193246556 -0.6828486111 -0.1605484104
C 8.6276186843 -1.3340012898 0.3714410151
C 8.1419374487 -0.1107010783 -0.1397819571
C 6.7802780615 0.1589171168 -0.1736721886
C 5.8326712175 -0.7590334289 0.2961083771
C 4.3866852320 -0.4891725406 0.2320561427
C 3.3557127805 -1.3836145997 0.0810962933
C 2.0741636656 -0.7660000993 0.0510543109
C 2.1381512895 0.5963902521 0.1817121546
C 1.0054245527 1.5249816411 0.1709811823
C 1.0643859401 2.8937413459 0.1780195671
S -0.5208966584 3.5536337805 0.1545688990
C -1.1645395719 1.9421757645 0.1200593660
C -2.5983473403 1.6835645435 0.0760964069
C -3.6414229186 2.5729159716 0.0030976894
C -4.9059936713 1.9268511682 -0.0362748255
C -4.8119743458 0.5546099428 0.0033306557
C -5.9016775437 -0.4350705898 -0.0224872823
C -5.7260856953 -1.7235182650 -0.5441998889
C -6.7599993920 -2.6485907693 -0.5757091173
C -8.0412485850 -2.3242980654 -0.0790006542
N -9.0713212474 -3.2380505670 -0.1075268797
C -10.3761776485 -2.8645102639 0.3795117591
C -8.8576455597 -4.5436245429 -0.6822015738
C -8.2202412386 -1.0254752716 0.4476573246
C -7.1723923644 -0.1164865208 0.4740067821
S -3.1626955248 0.0535264680 0.1099389146
N -0.2653530570 1.0053291180 0.1369629978
S 3.7723487196 1.1238406732 0.3625471116
C 6.3151388980 -1.9674556042 0.8156759719
C 7.6716869052 -2.2572176351 0.8499062382
H 10.1390813095 -3.0983711821 1.9108057464
H 11.5203338317 -2.9559877177 0.8032955528
H 10.0185797313 -3.7368986351 0.2500649590
H 11.9359249657 -1.0823375546 -0.0541325874
H 10.8909939435 0.2938806695 0.3545199524
H 10.7387046078 -0.4989000302 -1.2363274145
H 8.8314902836 0.6402116703 -0.5272047803
H 6.4420261394 1.1094528758 -0.5986235617
H 3.5190078173 -2.4563583136 -0.0388223813
H 1.1226170916 -1.2851915915 -0.0705972834
H 1.9489733772 3.5294263458 0.1922390567
H -3.5046180486 3.6564236336 -0.0357544491
H -5.8561845166 2.4561218138 -0.1269744065
H -4.7547730596 -2.0096949913 -0.9601705831
H -6.5643549890 -3.6333161192 -1.0014700432
H -11.0569332350 -3.7207548088 0.2917583851
H -10.8122015524 -2.0251350103 -0.1932355801
H -10.3512301461 -2.5674105072 1.4433781830
H -8.5775739315 -4.4902948089 -1.7504373092
H -9.7831150263 -5.1289475247 -0.6095152214
H -8.0640164595 -5.1039785413 -0.1560788668
H -9.1859362836 -0.7200476539 0.8522684482
H -7.3448444164 0.8704713189 0.9131656484
H 5.6080439742 -2.6980409582 1.2194345945
H 7.9890805579 -3.2132175181 1.2677200325
58
step=30 E=-2401.207163101788 Eh
C 10.4688622305 -2.8790661330 0.8697781697
N 10.0069845684 -1.5900586452 0.4166619424
C 10.9437486571 -0.6406629301 -0.1318516566
C 8.6552111499 -1.3209136701 0.3759519417
C 8.1621674304 -0.0998380714 -0.1329576745
C 6.7990004292 0.1610727405 -0.1754160200
C 5.8556582841 -0.7662836865 0.2845151837
C 4.4074012877 -0.5069826850 0.2162380493
C 3.3847679822 -1.4104561410 0.0623178368
C 2.0979094765 -0.8028249592 0.0329002682
C 2.1512581432 0.5599746866 0.1639902735
C 1.0130630460 1.4821853959 0.1556308487
C 1.0683718514 2.8509305929 0.1702365691
S -0.5175990889 3.5072276748 0.1450806618
C -1.1586777952 1.8939561312 0.1066331078
C -2.5932941200 1.6378751326 0.0655340816
C -3.6311289610 2.5341344401 0.0004532834
C -4.9009666071 1.8989525857 -0.0362078571
C -4.8150480810 0.5262501427 -0.0002280899
C -5.9169251892 -0.4502656488 -0.0220830619
C -5.7574179886 -1.7385626173 -0.5485571978
C -6.8035410013 -2.6500388245 -0.5776789791
C -8.0794921580 -2.3126941827 -0.0748769506
N -9.1224889338 -3.2118709083 -0.1003675411
C -10.4200855435 -2.8234494083 0.3956717843
C -8.9287184121 -4.5182428099 -0.6806009079
C -8.2397584237 -1.0133534394 0.4561147610
C -7.1812141777 -0.1167962051 0.4811603824
S -3.1687669446 0.0116804872 0.0927608200
N -0.2569332622 0.9597216902 0.1182549090
S 3.7809832030 1.1015392293 0.3440426830
C 6.3454059881 -1.9735657286 0.7998298792
C 7.7037181406 -2.2547342535 0.8425609072
H 10.1768031770 -3.0781127601 1.9162761476
H 11.5648139095 -2.9108015396 0.8208374684
H 10.0782300668 -3.7083658624 0.2506296769
H 11.9639525765 -1.0288874424 -0.0180740408
H 10.8980049590 0.3320103129 0.3896073312
H 10.7715449139 -0.4513948988 -1.2081094886
H 8.8486344038 0.6581646263 -0.5119769470
H 6.4572763875 1.1117875450 -0.5973065368
H 3.5571967739 -2.4819361442 -0.0571619158
H 1.1507893145 -1.3302249048 -0.0892106171
H 1.9514797518 3.4886689099 0.1895461406
H -3.4864446929 3.6168151979 -0.0337860780
H -5.8481831624 2.4348882138 -0.1192430149
H -4.7905069326 -2.0353669635 -0.9676290567
H -6.6220950280 -3.6360982892 -1.0066256307
H -11.1120740532 -3.6707940905 0.3082567809
H -10.8498203871 -1.9764228252 -0.1705710482
H -10.3852528673 -2.5308294332 1.4605279195
H -8.6526424297 -4.4652971965 -1.7500241172
H -9.8609960913 -5.0922670389 -0.6046246574
H -8.1396478117 -5.0896901167 -0.1598219959
H -9.1999036867 -0.6971854948 0.8656587181
H -7.3395933495 0.8711631321 0.9233385273
H 5.6414897541 -2.7122111021 1.1943716229
H 8.0256050568 -3.2106161990 1.2574150888
58
step=31 E=-2401.207184324646 Eh
C 10.5188435380 -2.8392326405 0.8551062791
N 10.0368497018 -1.5562568228 0.4059458391
C 10.9579600356 -0.5859216274 -0.1321576485
C 8.6810291002 -1.3095072577 0.3629809963
C 8.1690200441 -0.0960853500 -0.1449113729
C 6.8017861660 0.1426208288 -0.1831990821
C 5.8727967828 -0.7984005539 0.2782222325
C 4.4211990680 -0.5536857989 0.2189789142
C 3.4006721112 -1.4643205738 0.0957813300
C 2.1081399863 -0.8677619437 0.0691660908
C 2.1572752064 0.4976886677 0.1693561483
C 1.0162230309 1.4162303532 0.1565435716
C 1.0740410014 2.7850123566 0.1644937261
S -0.5098373216 3.4441420363 0.1374637441
C -1.1543550484 1.8313988673 0.1096691803
C -2.5910369374 1.5860704966 0.0724426647
C -3.6196523484 2.4932869880 0.0122802058
C -4.8968569143 1.8739179177 -0.0229495503
C -4.8266277561 0.5003672130 0.0131095052
C -5.9427386951 -0.4602165371 -0.0081256035
C -5.7985473728 -1.7585044567 -0.5135839453
C -6.8598574886 -2.6522483985 -0.5473740350
C -8.1376402737 -2.2847694775 -0.0707163910
N -9.1972443315 -3.1643565684 -0.1012899823
C -10.4952317539 -2.7456379344 0.3686513391
C -9.0192546595 -4.4809971576 -0.6629604975
C -8.2820361888 -0.9754600241 0.4398896993
C -7.2084085902 -0.0973618555 0.4707666586
S -3.1856106288 -0.0331338392 0.0993925923
N -0.2547414834 0.8951443273 0.1252156574
S 3.7859848958 1.0530685669 0.3168276499
C 6.3809081325 -2.0002969895 0.7882852932
C 7.7439126948 -2.2589365979 0.8273441377
H 10.2246632935 -3.0483950509 1.8990081998
H 11.6154296749 -2.8509891695 0.8126518587
H 10.1469942272 -3.6723202537 0.2294412484
H 11.9850272878 -0.9536013600 -0.0123506046
H 10.8876876430 0.3833444103 0.3928293862
H 10.7898859670 -0.3956298898 -1.2088725575
H 8.8426928584 0.6728883868 -0.5246341409
H 6.4456764196 1.0895774167 -0.6015238629
H 3.5776779358 -2.5372907405 -0.0005161041
H 1.1633313812 -1.4041935909 -0.0301241623
H 1.9583224739 3.4211914313 0.1806656141
H -3.4628467676 3.5743083236 -0.0194209953
H -5.8380599038 2.4210176100 -0.1002250746
H -4.8294979184 -2.0797575660 -0.9089859764
H -6.6891141948 -3.6475004778 -0.9589899690
H -11.2013214329 -3.5811258477 0.2797049399
H -10.9005437260 -1.8979518903 -0.2143904785
H -10.4720002293 -2.4404434208 1.4302294062
H -8.7246491491 -4.4463697034 -1.7282094701
H -9.9630131403 -5.0369182194 -0.5945781461
H -8.2494940202 -5.0601736852 -0.1223411928
H -9.2428211451 -0.6361441693 0.8287094219
H -7.3566938477 0.8997721918 0.8952780982
H 5.6899655123 -2.7518717302 1.1811334310
H 8.0818990268 -3.2109298152 1.2385443696
58
step=32 E=-2401.207188385682 Eh
C 10.5362514122 -2.8347273696 0.8030936947
N 10.0462718460 -1.5521105171 0.3621294043
C 10.9646033432 -0.5820069187 -0.1811410920
C 8.6893984314 -1.3094051877 0.3227662286
C 8.1732227016 -0.0963631606 -0.1819189107
C 6.8059446805 0.1433229627 -0.2122172705
C 5.8796790509 -0.7984227986 0.2532573012
C 4.4275028076 -0.5532734859 0.2104549555
C 3.4071666218 -1.4694543444 0.1357975767
C 2.1167116835 -0.8678346895 0.1118332705
C 2.1629220574 0.5001136520 0.1665273082
C 1.0249465721 1.4226410685 0.1468408871
C 1.0857643799 2.7915872695 0.1472370404
S -0.4958785294 3.4550628318 0.1205292470
C -1.1443874824 1.8441430698 0.1011713574
C -2.5819035097 1.6034460679 0.0668147403
C -3.6064921258 2.5156739422 0.0125211976
C -4.8855303581 1.9004749353 -0.0208389539
C -4.8221357189 0.5263231519 0.0105598942
C -5.9418482248 -0.4300740143 -0.0131483070
C -5.7943810509 -1.7369904414 -0.4949876095
C -6.8594616064 -2.6260854848 -0.5342589781
C -8.1436931245 -2.2451307825 -0.0871881668
N -9.2061638852 -3.1210829256 -0.1228699146
C -10.5116951159 -2.6847905111 0.3082069623
C -9.0248686728 -4.4469721373 -0.6609279095
C -8.2918428320 -0.9270819798 0.3992904587
C -7.2147204265 -0.0537034442 0.4360247443
S -3.1829027059 -0.0134191015 0.0916872391
N -0.2474406160 0.9050759030 0.1205279043
S 3.7940519316 1.0570313912 0.2657296431
C 6.3929656224 -2.0015300531 0.7556000145
C 7.7557543154 -2.2618983111 0.7880591598
H 10.2407528642 -3.0530627900 1.8445558117
H 11.6331333159 -2.8374684346 0.7647195324
H 10.1729675477 -3.6664399911 0.1704050632
H 11.9927696729 -0.9463435075 -0.0601013939
H 10.8918494996 0.3894329014 0.3393839668
H 10.7955414139 -0.3969283652 -1.2586774014
H 8.8443164634 0.6735118213 -0.5643395560
H 6.4486958817 1.0918767441 -0.6259774013
H 3.5811027912 -2.5455975623 0.0746641614
H 1.1703304113 -1.4064689838 0.0465493608
H 1.9715559072 3.4257587143 0.1607067029
H -3.4459844241 3.5963156737 -0.0153401174
H -5.8245191318 2.4522053902 -0.0911553331
H -4.8193704380 -2.0703971663 -0.8649136168
H -6.6857431476 -3.6283432065 -0.9272345928
H -11.2222479310 -3.5159909609 0.2149170274
H -10.8954800045 -1.8434228411 -0.2981701612
H -10.5119432914 -2.3625183834 1.3649564585
H -8.7155979838 -4.4312924167 -1.7225500463
H -9.9710695976 -4.9991202095 -0.5953862566
H -8.2645685717 -5.0193472627 -0.1000611706
H -9.2583682217 -0.5775859094 0.7642069420
H -7.3667831642 0.9510701504 0.8407585449
H 5.7046429615 -2.7557451289 1.1478779138
H 8.0957433155 -3.2157797685 1.1933011143
58
step=33 E=-2401.207214190306 Eh
C 10.5188805269 -2.8501486415 0.8039039365
N 10.0363867414 -1.5648039999 0.3623607272
C 10.9585546364 -0.5979888879 -0.1804623485
C 8.6805665976 -1.3160979848 0.3223321003
C 8.1692824360 -0.1009229869 -0.1821438754
C 6.8028417700 0.1434100558 -0.2126231527
C 5.8727971128 -0.7950054931 0.2522440001
C 4.4215827291 -0.5448401246 0.2091601234
C 3.3971138004 -1.4563929728 0.1338590123
C 2.1081474554 -0.8519385049 0.1099781416
C 2.1607264079 0.5156985692 0.1654727134
C 1.0241014517 1.4397382785 0.1461607258
C 1.0849669235 2.8085854906 0.1474740174
S -0.4967929210 3.4722099653 0.1209345982
C -1.1455848759 1.8612308211 0.1006779349
C -2.5826924534 1.6183845183 0.0664881246
C -3.6099953184 2.5276639250 0.0132221048
C -4.8872756554 1.9088508766 -0.0199082167
C -4.8200872187 0.5346783937 0.0104089582
C -5.9359579005 -0.4261829941 -0.0132745306
C -5.7838236376 -1.7321417946 -0.4964521303
C -6.8448358497 -2.6260397793 -0.5357480262
C -8.1302384158 -2.2510197112 -0.0871431876
N -9.1891746263 -3.1312984092 -0.1225684424
C -10.4960479498 -2.7006682236 0.3099782799
C -9.0032397939 -4.4561214854 -0.6617544200
C -8.2833717193 -0.9340051794 0.4007072287
C -7.2100473736 -0.0559168530 0.4373090557
S -3.1792436146 -0.0000579104 0.0902401124
N -0.2484546110 0.9225846984 0.1193102265
S 3.7939143174 1.0675680465 0.2649429778
C 6.3809995362 -2.0002198143 0.7544760805
C 7.7429671554 -2.2648711038 0.7869256550
H 10.2212122830 -3.0668349720 1.8451307125
H 11.6157408110 -2.8590561576 0.7665054870
H 10.1515540029 -3.6798881134 0.1709874150
H 11.9852854278 -0.9662194989 -0.0591867632
H 10.8894062766 0.3736321397 0.3401927553
H 10.7905648148 -0.4120534407 -1.2580229288
H 8.8434062735 0.6665352909 -0.5641267580
H 6.4491510983 1.0933393169 -0.6262689837
H 3.5670824064 -2.5330498806 0.0721366408
H 1.1599774447 -1.3874274981 0.0443410281
H 1.9708777399 3.4425517768 0.1615244112
H -3.4526239602 3.6087666675 -0.0139346337
H -5.8277020629 2.4581931396 -0.0894272024
H -4.8078581691 -2.0610723579 -0.8677564644
H -6.6670222399 -3.6271260587 -0.9298907399
H -11.2033990749 -3.5345619457 0.2166447923
H -10.8835514777 -1.8603771637 -0.2955217660
H -10.4967882249 -2.3792018760 1.3669637891
H -8.6950971591 -4.4384528875 -1.7236375357
H -9.9472391006 -5.0119368269 -0.5957492681
H -8.2402118922 -5.0260933207 -0.1020706712
H -9.2510069984 -0.5890400301 0.7669283821
H -7.3663416097 0.9476679975 0.8433239192
H 5.6898613112 -2.7520494128 1.1464409218
H 8.0792951663 -3.2200899726 1.1919804506
58
step=34 E=-2401.207239521696 Eh
C 10.4981991134 -2.8692649222 0.8177175334
N 10.0253520170 -1.5831559273 0.3680814494
C 10.9540358547 -0.6233396503 -0.1759252918
C 8.6710185874 -1.3269703542 0.3238111706
C 8.1672848639 -0.1107384351 -0.1857885859
C 6.8021002520 0.1396945531 -0.2206463129
C 5.8664616968 -0.7928778559 0.2446759822
C 4.4167533732 -0.5361991383 0.1973788219
C 3.3880776332 -1.4428057310 0.1207071193
C 2.1013361692 -0.8342094773 0.0956436448
C 2.1601231527 0.5332239277 0.1513213354
C 1.0254939597 1.4595044725 0.1335084825
C 1.0869527683 2.8282149781 0.1411018434
S -0.4948728542 3.4926470583 0.1156474117
C -1.1441708564 1.8818201742 0.0896978221
C -2.5808065468 1.6367123928 0.0576455788
C -3.6116026743 2.5425372640 0.0137597779
C -4.8865660419 1.9188582097 -0.0172807350
C -4.8140779272 0.5446137181 0.0036700202
C -5.9249538177 -0.4218314213 -0.0201072061
C -5.7704353303 -1.7221894021 -0.5176856774
C -6.8258783181 -2.6226553472 -0.5555651754
C -8.1089371270 -2.2598941546 -0.0907473899
N -9.1626830561 -3.1464708619 -0.1244794487
C -10.4682046551 -2.7279570916 0.3234573760
C -8.9737862717 -4.4653748709 -0.6770016394
C -8.2650141479 -0.9485802884 0.4114965699
C -7.1969370431 -0.0640247517 0.4460033318
S -3.1709711816 0.0159574397 0.0724409805
N -0.2472337433 0.9430967381 0.1031658095
S 3.7956670368 1.0788987678 0.2500891878
C 6.3669362487 -1.9989680459 0.7524179404
C 7.7276287961 -2.2694863158 0.7889658652
H 10.1959090139 -3.0787907310 1.8591115921
H 11.5950691420 -2.8857145135 0.7835868526
H 10.1272303001 -3.6997712416 0.1880046559
H 11.9784654000 -0.9961153137 -0.0493111465
H 10.8880382402 0.3509742863 0.3400596311
H 10.7908965816 -0.4415634214 -1.2549310950
H 8.8463580045 0.6519249559 -0.5686118839
H 6.4538907477 1.0895711605 -0.6389997329
H 3.5530331223 -2.5201779389 0.0589088064
H 1.1512981497 -1.3662165097 0.0295339729
H 1.9733045192 3.4614145983 0.1593953489
H -3.4584682830 3.6243577857 -0.0072276440
H -5.8290629868 2.4654371483 -0.0797576706
H -4.7967057714 -2.0412786574 -0.9030592231
H -6.6456274535 -3.6185712674 -0.9615206880
H -11.1715538536 -3.5649789575 0.2283340282
H -10.8654995491 -1.8843379596 -0.2709609720
H -10.4618513483 -2.4163797694 1.3833761220
H -8.6758256750 -4.4364273093 -1.7414891979
H -9.9138119579 -5.0274056377 -0.6073590836
H -8.2022939200 -5.0359514889 -0.1295767535
H -9.2308357858 -0.6134773604 0.7912972774
H -7.3556260902 0.9339881367 0.8646088313
H 5.6711870977 -2.7457185911 1.1459110141
H 8.0581575256 -3.2249680111 1.1980688513
58
step=35 E=-2401.207245269356 Eh
C 10.5200358312 -2.8626385405 0.7829733552
N 10.0510261666 -1.5773404174 0.3264970607
C 10.9799102300 -0.6294896640 -0.2384202401
C 8.6971136215 -1.3166583422 0.2857778311
C 8.1955410777 -0.1009141902 -0.2273086712
C 6.8309279876 0.1537316323 -0.2584100755
C 5.8938116938 -0.7738445805 0.2141444991
C 4.4445188048 -0.5134367941 0.1715527089
C 3.4105526640 -1.4152527624 0.1123113509
C 2.1252273159 -0.8035060960 0.0892788202
C 2.1909338854 0.5640685514 0.1277966445
C 1.0581974463 1.4926413196 0.1085734614
C 1.1201150064 2.8612004408 0.1233590970
S -0.4614107231 3.5261990693 0.0922102393
C -1.1115589001 1.9154211107 0.0589145106
C -2.5478494475 1.6689186507 0.0226652882
C -3.5794189577 2.5742258944 -0.0184942487
C -4.8534607244 1.9488517613 -0.0540091222
C -4.7788858307 0.5746451054 -0.0379052913
C -5.8890383523 -0.3925065061 -0.0638780975
C -5.7385698197 -1.6864895470 -0.5791900969
C -6.7931424735 -2.5881811868 -0.6129996517
C -8.0710545464 -2.2333649854 -0.1280710869
N -9.1234134490 -3.1218010305 -0.1567431937
C -10.4280060693 -2.7058835065 0.2968450474
C -8.9365916654 -4.4373441226 -0.7180377099
C -8.2236541326 -0.9276848068 0.3893769637
C -7.1561378012 -0.0421966152 0.4207779466
S -3.1356496382 0.0472976367 0.0320887144
N -0.2147855727 0.9769956668 0.0719021262
S 3.8296085999 1.1044431342 0.2074334852
C 6.3919813433 -1.9793374092 0.7254152979
C 7.7520004324 -2.2538895644 0.7578478397
H 10.2162987086 -3.0653339373 1.8251963864
H 11.6169538437 -2.8821775976 0.7500518073
H 10.1471534693 -3.6960788288 0.1580764146
H 12.0036663748 -1.0049727372 -0.1139266562
H 10.9223348486 0.3524521134 0.2638363962
H 10.8097540727 -0.4624557667 -1.3188202866
H 8.8758468577 0.6578918546 -0.6157347531
H 6.4841586318 1.1029148217 -0.6797300572
H 3.5702637003 -2.4939978575 0.0621491692
H 1.1729039987 -1.3329550944 0.0360655550
H 2.0067961553 3.4938133662 0.1494056491
H -3.4273002722 3.6563448178 -0.0351440450
H -5.7967140205 2.4942922784 -0.1168827926
H -4.7697415847 -1.9984444140 -0.9825181265
H -6.6166917077 -3.5789486304 -1.0331406312
H -11.1324599338 -3.5412438583 0.1951668622
H -10.8250332842 -1.8568382862 -0.2899260302
H -10.4204887151 -2.4031855982 1.3593862320
H -8.6550037561 -4.4033712536 -1.7869733975
H -9.8725040984 -5.0045465539 -0.6356544983
H -8.1541121086 -5.0057247536 -0.1842428191
H -9.1851693272 -0.5988779117 0.7854408206
H -7.3108253395 0.9503645434 0.8538260518
H 5.6952767903 -2.7224079597 1.1242962162
H 8.0804898984 -3.2093268912 1.1686157677
58
step=36 E=-2401.207242256524 Eh
C 10.5592576777 -2.8419119584 0.7616466759
N 10.0851656344 -1.5628696535 0.2932237065
C 11.0092405217 -0.6199813466 -0.2873642218
C 8.7304726551 -1.3060299161 0.2542697515
C 8.2244903958 -0.0967344228 -0.2693661507
C 6.8592123607 0.1540703856 -0.2976806980
C 5.9257039662 -0.7699675161 0.1886600214
C 4.4760087776 -0.5113394429 0.1514639322
C 3.4439533037 -1.4166265092 0.1152042635
C 2.1578094561 -0.8066648856 0.0929454683
C 2.2209485998 0.5615994230 0.1092419195
C 1.0872580697 1.4889497981 0.0868866657
C 1.1503452559 2.8573998796 0.1023586658
S -0.4303369264 3.5241535887 0.0679764161
C -1.0817334442 1.9139359198 0.0341703080
C -2.5189166829 1.6722350687 -0.0035409333
C -3.5476587733 2.5807152705 -0.0425648255
C -4.8245589135 1.9612371509 -0.0789894408
C -4.7551447982 0.5867903254 -0.0656703285
C -5.8690910104 -0.3759691295 -0.0925022336
C -5.7271581459 -1.6649443267 -0.6223299517
C -6.7850176993 -2.5628166833 -0.6574208460
C -8.0579268016 -2.2080062839 -0.1594024594
N -9.1142427393 -3.0917162969 -0.1901790048
C -10.4161927744 -2.6707608174 0.2662258900
C -8.9357099110 -4.4040911212 -0.7613223174
C -8.2016268221 -0.9074008281 0.3731646793
C -7.1307693355 -0.0260891750 0.4063430395
S -3.1136594623 0.0531363953 0.0019384138
N -0.1861280729 0.9742073447 0.0478918560
S 3.8591138688 1.1062485820 0.1649070453
C 6.4282505694 -1.9693934020 0.7097836784
C 7.7890530180 -2.2405487218 0.7388325556
H 10.2548163172 -3.0360079908 1.8052189492
H 11.6562778554 -2.8567153493 0.7305759802
H 10.1911927546 -3.6830290529 0.1441153716
H 12.0346161813 -0.9899342320 -0.1597969884
H 10.9492378341 0.3685097434 0.2014021913
H 10.8359827806 -0.4686126682 -1.3695977772
H 8.9016067026 0.6593887927 -0.6683259815
H 6.5089788897 1.0978499970 -0.7280384245
H 3.6048019123 -2.4958114274 0.0806363062
H 1.2061923504 -1.3386798753 0.0557904470
H 2.0375935244 3.4889921456 0.1312847428
H -3.3913287800 3.6621900290 -0.0569790247
H -5.7656750353 2.5103515035 -0.1414667035
H -4.7628227451 -1.9751196002 -1.0375714155
H -6.6156184220 -3.5495062298 -1.0898232013
H -11.1269229544 -3.4994773316 0.1545823492
H -10.8055227606 -1.8125541306 -0.3122605333
H -10.4081385032 -2.3792705105 1.3318841082
H -8.6632213205 -4.3647308912 -1.8324803432
H -9.8721908354 -4.9696186594 -0.6740201050
H -8.1501130260 -4.9772251771 -0.2374738617
H -9.1587667449 -0.5796410357 0.7804430629
H -7.2779573819 0.9620149551 0.8519314134
H 5.7350232920 -2.7095209237 1.1198608715
H 8.1212172070 -3.1912254908 1.1575695984
58
step=37 E=-2401.207240115539 Eh
C 10.5718541301 -2.8323221359 0.7599964588
N 10.0929183069 -1.5549744850 0.2920279993
C 11.0135080054 -0.6090650050 -0.2890152297
C 8.7374880654 -1.3024230811 0.2541239688
C 8.2276539004 -0.0946694097 -0.2693615944
C 6.8619552084 0.1535143235 -0.2975026577
C 5.9314583003 -0.7730699411 0.1895330962
C 4.4811129743 -0.5179885997 0.1527898333
C 3.4512899770 -1.4258310715 0.1171931701
C 2.1638876809 -0.8184380220 0.0948877490
C 2.2235333099 0.5500634952 0.1105149317
C 1.0889659940 1.4763918158 0.0876559498
C 1.1520483241 2.8448698205 0.1020414599
S -0.4285426413 3.5116583815 0.0670663132
C -1.0799336854 1.9014267032 0.0344349126
C -2.5173329002 1.6609537197 -0.0035665290
C -3.5435808500 2.5721568214 -0.0438625265
C -4.8216459965 1.9551627173 -0.0805226140
C -4.7555993860 0.5806261035 -0.0660175637
C -5.8723774064 -0.3788546318 -0.0929025931
C -5.7339676307 -1.6688360429 -0.6211512405
C -6.7946743939 -2.5633239746 -0.6564364618
C -8.0669633451 -2.2037694977 -0.1601967013
N -9.1259976385 -3.0841704850 -0.1913950522
C -10.4271248396 -2.6586374197 0.2630910296
C -8.9508485023 -4.3976484346 -0.7610487906
C -8.2070479335 -0.9021585303 0.3708910086
C -7.1333853448 -0.0242998416 0.4043072690
S -3.1154800301 0.0429815684 0.0030252108
N -0.1844145994 0.9615087762 0.0490703043
S 3.8604753030 1.0981512174 0.1658534168
C 6.4378751253 -1.9709719818 0.7105495948
C 7.7992033128 -2.2396900704 0.7394769451
H 10.2689720875 -3.0274889330 1.8038259287
H 11.6688752409 -2.8433079792 0.7279563186
H 10.2061987303 -3.6746209170 0.1426652335
H 12.0401531564 -0.9756627860 -0.1620838978
H 10.9505146206 0.3791330728 0.1999546642
H 10.8390676665 -0.4581590764 -1.3711077537
H 8.9027337647 0.6630092515 -0.6687396808
H 6.5093375079 1.0963738400 -0.7279124978
H 3.6145933591 -2.5046738265 0.0829924941
H 1.2134940131 -1.3526482772 0.0580828528
H 2.0392770375 3.4764834928 0.1304129684
H -3.3847147725 3.6532533287 -0.0591133797
H -5.7615242396 2.5062225459 -0.1440223903
H -4.7701580347 -1.9825436208 -1.0349324967
H -6.6280751934 -3.5510489336 -1.0875223358
H -11.1403819367 -3.4851622725 0.1513568429
H -10.8129689000 -1.7996837328 -0.3166143416
H -10.4193685374 -2.3662841766 1.3285111896
H -8.6769321784 -4.3601601348 -1.8319097607
H -9.8891864951 -4.9601817237 -0.6743837587
H -8.1676473621 -4.9726307179 -0.2357082101
H -9.1635362886 -0.5707916730 0.7767494041
H -7.2777572392 0.9648047457 0.8485655557
H 5.7466382354 -2.7126722348 1.1210481575
H 8.1338756461 -3.1894939989 1.1582787499
58
step=38 E=-2401.207238558266 Eh
C 10.5778574290 -2.8290594956 0.7573599912
N 10.0967269265 -1.5522985441 0.2901147501
C 11.0160029104 -0.6051719100 -0.2909864110
C 8.7410242707 -1.3013302053 0.2532280045
C 8.2296995231 -0.0940568902 -0.2698494929
C 6.8636876323 0.1523884711 -0.2970124056
C 5.9342121094 -0.7750301472 0.1904572337
C 4.4835616946 -0.5214963505 0.1544576315
C 3.4548424434 -1.4306294314 0.1195835674
C 2.1669322692 -0.8242285192 0.0974170037
C 2.2248920455 0.5443649133 0.1124474549
C 1.0900599187 1.4703865551 0.0891030508
C 1.1534489809 2.8388829761 0.1021510963
S -0.4269594655 3.5059135218 0.0664636285
C -1.0787425029 1.8957831358 0.0353235919
C -2.5162991112 1.6561585202 -0.0030582556
C -3.5416320656 2.5683195863 -0.0451029719
C -4.8204178324 1.9528652328 -0.0820909835
C -4.7556700730 0.5783470373 -0.0658991106
C -5.8737960170 -0.3795231364 -0.0927921658
C -5.7358664507 -1.6704082801 -0.6188808544
C -6.7977234886 -2.5634783168 -0.6546341981
C -8.0704497914 -2.2015327129 -0.1611878623
N -9.1306183347 -3.0805080797 -0.1930680223
C -10.4319575466 -2.6525514936 0.2585301116
C -8.9561950925 -4.3950255661 -0.7605461181
C -8.2097578387 -0.8989810759 0.3678012421
C -7.1350807720 -0.0224023056 0.4018736785
S -3.1161915333 0.0388354935 0.0051068641
N -0.1834314063 0.9556594193 0.0510983527
S 3.8612554943 1.0939999166 0.1674164044
C 6.4422579256 -1.9723793474 0.7110763535
C 7.8039276110 -2.2395896297 0.7391037362
H 10.2760470291 -3.0249647242 1.8013639268
H 11.6748592437 -2.8384452810 0.7244509886
H 10.2129637749 -3.6716467295 0.1399882538
H 12.0431119655 -0.9706405406 -0.1645885865
H 10.9520689236 0.3827559350 0.1983971605
H 10.8409251708 -0.4540838610 -1.3729397548
H 8.9036596186 0.6644139442 -0.6696069817
H 6.5098830131 1.0949073375 -0.7271441339
H 3.6192745683 -2.5093231053 0.0856450877
H 1.2170867913 -1.3594332501 0.0610127097
H 2.0407799975 3.4703749202 0.1297858095
H -3.3815632007 3.6492096199 -0.0615268598
H -5.7596797126 2.5048072758 -0.1469838705
H -4.7716810267 -1.9859421250 -1.0304010413
H -6.6317265284 -3.5520918970 -1.0838721856
H -11.1461952956 -3.4782045519 0.1466172137
H -10.8155015243 -1.7937942589 -0.3229777621
H -10.4256683655 -2.3588793147 1.3235981175
H -8.6802705962 -4.3594063169 -1.8309578912
H -9.8954524233 -4.9561650509 -0.6748326544
H -8.1746921023 -4.9702348863 -0.2329858821
H -9.1665183266 -0.5657234119 0.7714462667
H -7.2788682527 0.9676131653 0.8442770229
H 5.7521170798 -2.7148992006 1.1219349510
H 8.1398611448 -3.1890672672 1.1576397338
58
step=39 E=-2401.207238655043 Eh
C 10.5800523950 -2.8300037434 0.7540950106
N 10.0983421328 -1.5531036919 0.2878175551
C 11.0170300174 -0.6052713129 -0.2930453285
C 8.7426022016 -1.3023259124 0.2520408976
C 8.2306697922 -0.0949851207 -0.2703010758
C 6.8646494689 0.1514370499 -0.2965645757
C 5.9356417998 -0.7762682846 0.1912723713
C 4.4849485948 -0.5229038154 0.1561042798
C 3.4563289701 -1.4322004479 0.1218361410
C 2.1683211660 -0.8259897376 0.0998575263
C 2.2262250061 0.5426022619 0.1144848744
C 1.0913683234 1.4685724377 0.0906830816
C 1.1548709909 2.8370787218 0.1023355678
S -0.4254303156 3.5042664467 0.0659451031
C -1.0773842421 1.8941637949 0.0362948637
C -2.5149878526 1.6548878354 -0.0025549921
C -3.5399580705 2.5673629028 -0.0464812841
C -4.8189369923 1.9523277134 -0.0838845101
C -4.7547867902 0.5778169610 -0.0659726074
C -5.8732238255 -0.3796900286 -0.0929839553
C -5.7349731590 -1.6715692072 -0.6165395769
C -6.7972606346 -2.5640930201 -0.6528041155
C -8.0707430043 -2.2005823840 -0.1624487951
N -9.1313599961 -3.0789662106 -0.1950757305
C -10.4332763077 -2.6494648673 0.2533749076
C -8.9566046048 -4.3944868972 -0.7601369033
C -8.2103260896 -0.8971010711 0.3641704732
C -7.1351997971 -0.0210954718 0.3988147112
S -3.1155542765 0.0378105746 0.0071477657
N -0.1821865065 0.9539556609 0.0532490952
S 3.8625017594 1.0925084349 0.1691825301
C 6.4442828357 -1.9736524976 0.7112087028
C 7.8059793231 -2.2408571414 0.7383086101
H 10.2789816438 -3.0265114909 1.7982007889
H 11.6770264315 -2.8391527222 0.7204095763
H 10.2149412718 -3.6723125785 0.1364773842
H 12.0443212630 -0.9704572011 -0.1673442866
H 10.9529582797 0.3822686680 0.1970968964
H 10.8413878167 -0.4534807785 -1.3748051233
H 8.9042760426 0.6636711095 -0.6702910622
H 6.5105299059 1.0940566329 -0.7262085431
H 3.6209062187 -2.5108731393 0.0880005944
H 1.2185365727 -1.3613348270 0.0637707568
H 2.0422511304 3.4685267870 0.1292023439
H -3.3794747746 3.6481679167 -0.0641034275
H -5.7579341186 2.5045287710 -0.1502759449
H -4.7701481421 -1.9883725111 -1.0255672460
H -6.6310286663 -3.5535655452 -1.0799545028
H -11.1478786907 -3.4747731012 0.1412553636
H -10.8150432668 -1.7912427840 -0.3300774815
H -10.4288424284 -2.3543500629 1.3180547553
H -8.6785349531 -4.3606954299 -1.8300529284
H -9.8963764076 -4.9549166335 -0.6754463858
H -8.1764533173 -4.9692867934 -0.2301587328
H -9.1676553494 -0.5625455019 0.7653796288
H -7.2792782185 0.9698047044 0.8391186127
H 5.7545211544 -2.7163912168 1.1223036688
H 8.1422717344 -3.1904138235 1.1563776836
58
step=40 E=-2401.207239533645 Eh
C 10.5795413010 -2.8319922625 0.7526712686
N 10.0982114026 -1.5547429758 0.2869475459
C 11.0171634696 -0.6068773196 -0.2934634136
C 8.7425564052 -1.3034991339 0.2514918514
C 8.2308382622 -0.0958606390 -0.2703948372
C 6.8648711520 0.1509074330 -0.2963328614
C 5.9357020823 -0.7767047208 0.1914017004
C 4.4850663474 -0.5229986330 0.1565100881
C 3.4561660390 -1.4319823848 0.1222736440
C 2.1683051318 -0.8254475005 0.1003766976
C 2.2266000149 0.5431094262 0.1150589983
C 1.0919460146 1.4693235485 0.0911284701
C 1.1555339144 2.8378393940 0.1022868691
S -0.4247144130 3.5051230479 0.0656637358
C -1.0768021036 1.8950713286 0.0365194451
C -2.5143724877 1.6556713061 -0.0025068434
C -3.5394465729 2.5679987739 -0.0471748706
C -4.8183087357 1.9527297538 -0.0847233206
C -4.7540077451 0.5782273057 -0.0661310715
C -5.8722431506 -0.3795148504 -0.0931819045
C -5.7334868656 -1.6717930154 -0.6156329022
C -6.7956661183 -2.5644338494 -0.6521166796
C -8.0695716407 -2.2006517965 -0.1630790391
N -9.1301256844 -3.0791015515 -0.1959991031
C -10.4324121874 -2.6493762753 0.2511405272
C -8.9548567669 -4.3949942022 -0.7600290646
C -8.2096639138 -0.8968117062 0.3625186065
C -7.1346309171 -0.0207023033 0.3973904315
S -3.1147243494 0.0385152236 0.0077957941
N -0.1816504923 0.9548342060 0.0538883491
S 3.8630304086 1.0925626229 0.1698383251
C 6.4441337877 -1.9743691481 0.7108975170
C 7.8057610475 -2.2419087792 0.7376560708
H 10.2785476507 -3.0288198764 1.7967377539
H 11.6765075065 -2.8415071545 0.7188243474
H 10.2140644022 -3.6739144286 0.1347442701
H 12.0443563644 -0.9724027969 -0.1679437141
H 10.9533683025 0.3804396370 0.1971703509
H 10.8415478782 -0.4545038330 -1.3751440140
H 8.9045539642 0.6627516746 -0.6702877478
H 6.5109300909 1.0937537896 -0.7256299838
H 3.6204645928 -2.5106913011 0.0883310299
H 1.2183763694 -1.3605392297 0.0642764591
H 2.0429468006 3.4692544812 0.1288750462
H -3.3791225527 3.6488219185 -0.0652692217
H -5.7573650284 2.5047578647 -0.1516836480
H -4.7682939929 -1.9888574798 -1.0235819640
H -6.6290081872 -3.5542241970 -1.0783654356
H -11.1469071178 -3.4747658888 0.1389237887
H -10.8137005777 -1.7914932055 -0.3331156526
H -10.4288423481 -2.3536678183 1.3156615572
H -8.6759160476 -4.3618982311 -1.8297405881
H -9.8946832352 -4.9553936158 -0.6757419750
H -8.1750978892 -4.9694008823 -0.2290465565
H -9.1673389418 -0.5620062081 0.7626929107
H -7.2791559499 0.9705332911 0.8367867590
H 5.7542700911 -2.7170765960 1.1218917845
H 8.1418890451 -3.1916702085 1.1553920694
58
step=41 E=-2401.207240380370 Eh
C 10.5788124131 -2.8341761118 0.7514536262
N 10.0979537674 -1.5565622508 0.2862248930
C 11.0172315486 -0.6087340560 -0.2937448307
C 8.7423919710 -1.3047695737 0.2510284518
C 8.2310361563 -0.0967965936 -0.2704478464
C 6.8651450350 0.1504438825 -0.2961422559
C 5.9357065852 -0.7769810544 0.1914439114
C 4.4851453959 -0.5228364860 0.1567576466
C 3.4559842320 -1.4315203091 0.1224969533
C 2.1682795836 -0.8246567842 0.1006570321
C 2.2269644166 0.5438736347 0.1154313681
C 1.0924623394 1.4702664738 0.0913977546
C 1.1561155162 2.8387861710 0.1021410381
S -0.4241021638 3.5061365852 0.0653409212
C -1.0762722993 1.8961091313 0.0366208207
C -2.5138112340 1.6566044913 -0.0025310114
C -3.5390352846 2.5687385503 -0.0478069025
C -4.8177719259 1.9532190294 -0.0854495486
C -4.7532439141 0.5787232926 -0.0662970796
C -5.8712543143 -0.3792834537 -0.0933742294
C -5.7319637988 -1.6718793245 -0.6149029299
C -6.7939820314 -2.5647004520 -0.6515857431
C -8.0682796731 -2.2008073769 -0.1636634470
N -9.1287027830 -3.0794094449 -0.1968540199
C -10.4313412985 -2.6496229773 0.2491892182
C -8.9528884185 -4.3955933932 -0.7600374561
C -8.2089156501 -0.8966851023 0.3610915986
C -7.1340275335 -0.0204036579 0.3961596833
S -3.1138856698 0.0393542347 0.0082711234
N -0.1811568433 0.9558551104 0.0543208655
S 3.8635440789 1.0928948361 0.1703156667
C 6.4437813961 -1.9749663935 0.7105468007
C 7.8053170992 -2.2429694618 0.7370509927
H 10.2778527320 -3.0312710324 1.7954796832
H 11.6757722783 -2.8441270371 0.7174816790
H 10.2129339797 -3.6757141634 0.1332436594
H 12.0443017619 -0.9746549926 -0.1683728065
H 10.9537561318 0.3783818624 0.1973390035
H 10.8416780077 -0.4558095340 -1.3753563181
H 8.9049610751 0.6616980181 -0.6702139531
H 6.5114846500 1.0935399638 -0.7251264007
H 3.6199994436 -2.5102659767 0.0884388550
H 1.2182091190 -1.3594921652 0.0645120530
H 2.0435549556 3.4701765066 0.1284920676
H -3.3789036994 3.6495851273 -0.0662989522
H -5.7569091092 2.5050550163 -0.1528670992
H -4.7664358825 -1.9890868927 -1.0219415731
H -6.6268763141 -3.5547387420 -1.0770836233
H -11.1456738685 -3.4751378388 0.1368579767
H -10.8122986196 -1.7920427042 -0.3357204117
H -10.4285366377 -2.3534409900 1.3135832375
H -8.6732137400 -4.3630363869 -1.8295736306
H -9.8927118486 -4.9560496621 -0.6761030201
H -8.1734178387 -4.9696235010 -0.2282203934
H -9.1669111685 -0.5617606261 0.7603969631
H -7.2790186202 0.9710961053 0.8348052731
H 5.7537178148 -2.7175633570 1.1214093122
H 8.1411680311 -3.1929606704 1.1544863552
58
step=42 E=-2401.207241070872 Eh
C 10.5786368880 -2.8364297438 0.7499786020
N 10.0981058773 -1.5584463822 0.2854234557
C 11.0176460765 -0.6104505602 -0.2938542633
C 8.7426192179 -1.3062326532 0.2504987719
C 8.2315442731 -0.0979050433 -0.2704339074
C 6.8657122735 0.1497041330 -0.2958976125
C 5.9360765618 -0.7776737215 0.1913968510
C 4.4855762272 -0.5231800858 0.1568718467
C 3.4562007171 -1.4316154028 0.1224646565
C 2.1686399209 -0.8244566329 0.1006460407
C 2.2276334420 0.5440564773 0.1156166606
C 1.0932895497 1.4706365316 0.0914580237
C 1.1570740031 2.8391553536 0.1017193762
S -0.4230916639 3.5066358555 0.0647337530
C -1.0754081299 1.8966664814 0.0364962280
C -2.5129344290 1.6571448062 -0.0027756569
C -3.5382172255 2.5691764192 -0.0487449149
C -4.8168858202 1.9535175563 -0.0864563551
C -4.7522472784 0.5790307421 -0.0666525809
C -5.8701436439 -0.3791055315 -0.0937342713
C -5.7303983022 -1.6721072922 -0.6141421928
C -6.7923706969 -2.5649699790 -0.6510630236
C -8.0670793269 -2.2007356290 -0.1644838698
N -9.1274821338 -3.0793473235 -0.1980008610
C -10.4304642039 -2.6492779317 0.2467574019
C -8.9512201234 -4.3958993219 -0.7601848806
C -8.2081546599 -0.8962517364 0.3592562219
C -7.1333146690 -0.0199235266 0.3945536900
S -3.1128655635 0.0398489598 0.0086069909
N -0.1803720730 0.9563438271 0.0545624420
S 3.8643335031 1.0926919083 0.1707458542
C 6.4438762817 -1.9760049038 0.7099789562
C 7.8053388978 -2.2443708766 0.7362449752
H 10.2777208457 -3.0339806893 1.7939314610
H 11.6755916996 -2.8466815120 0.7158947094
H 10.2124646065 -3.6775349368 0.1313566664
H 12.0446248581 -0.9766737036 -0.1686114715
H 10.9543350869 0.3763671103 0.1978544558
H 10.8422270314 -0.4567978395 -1.3753836602
H 8.9056281940 0.6605759015 -0.6699609006
H 6.5122648057 1.0930726362 -0.7244602311
H 3.6199773072 -2.5103908733 0.0882212303
H 1.2184485678 -1.3590670597 0.0643643471
H 2.0445662078 3.4704845956 0.1277952874
H -3.3781781701 3.6500296283 -0.0677030099
H -5.7560540008 2.5052402394 -0.1543742603
H -4.7645143600 -1.9896473697 -1.0200742691
H -6.6248849143 -3.5553360649 -1.0756487237
H -11.1447458278 -3.4748164627 0.1342722210
H -10.8108870876 -1.7919764641 -0.3389030439
H -10.4285106375 -2.3525595688 1.3110071324
H -8.6706696901 -4.3640207141 -1.8295124524
H -9.8911236664 -4.9562833917 -0.6766706405
H -8.1721811959 -4.9696016376 -0.2273801907
H -9.1664825764 -0.5610369722 0.7575189491
H -7.2787072268 0.9719200458 0.8322883510
H 5.7536594520 -2.7185971589 1.1205951159
H 8.1409823821 -3.1946113266 1.1532788502
58
step=43 E=-2401.207241799361 Eh
C 10.5787684013 -2.8394548341 0.7480707299
N 10.0986525381 -1.5609853084 0.2844209825
C 11.0185279577 -0.6126825070 -0.2938151425
C 8.7432575923 -1.3082569979 0.2497972070
C 8.2325444943 -0.0994569712 -0.2703918673
C 6.8667883998 0.1486129912 -0.2956261684
C 5.9368820128 -0.7787461700 0.1911785834
C 4.4864531638 -0.5238469850 0.1567843506
C 3.4568530325 -1.4320168481 0.1220756464
C 2.1694499852 -0.8245410878 0.1002423772
C 2.2287819165 0.5439530334 0.1155541147
C 1.0946091420 1.4707330652 0.0912403329
C 1.1585580465 2.8392481990 0.1008922300
S -0.4215415801 3.5068987638 0.0637091796
C -1.0740389468 1.8969965772 0.0360758832
C -2.5115638167 1.6575213078 -0.0033093024
C -3.5368530576 2.5694983471 -0.0501163046
C -4.8154890963 1.9537732803 -0.0878732163
C -4.7508212648 0.5792930309 -0.0672767373
C -5.8686554298 -0.3789132726 -0.0943532716
C -5.7284228191 -1.6724402521 -0.6133258024
C -6.7904056924 -2.5652731836 -0.6505643866
C -8.0656173426 -2.2005089530 -0.1657087198
N -9.1260639640 -3.0790493079 -0.1996619341
C -10.4294464485 -2.6485277187 0.2434749361
C -8.9493383722 -4.3960784993 -0.7605862218
C -8.2071524027 -0.8955574731 0.3567473775
C -7.1323063816 -0.0192508541 0.3923361107
S -3.1114449705 0.0402149032 0.0087856708
N -0.1791104351 0.9565827638 0.0545766136
S 3.8656050651 1.0921781019 0.1711049572
C 6.4443293471 -1.9775368787 0.7090491196
C 7.8057013023 -2.2463586076 0.7350834664
H 10.2778711945 -3.0376475190 1.7919094803
H 11.6757166142 -2.8500743560 0.7138845439
H 10.2122553014 -3.6799806503 0.1288689288
H 12.0453968876 -0.9792524434 -0.1686880685
H 10.9553378307 0.3737077736 0.1987694427
H 10.8433645568 -0.4580161574 -1.3752404376
H 8.9068453486 0.6590357076 -0.6695302593
H 6.5136283041 1.0923492360 -0.7236146778
H 3.6203687259 -2.5108215202 0.0875448193
H 1.2191303547 -1.3589044745 0.0637068114
H 2.0461195359 3.4704938424 0.1266142357
H -3.3768423494 3.6503449881 -0.0696509227
H -5.7546475630 2.5054372642 -0.1563781748
H -4.7621073300 -1.9904784967 -1.0178343602
H -6.6225056351 -3.5560675948 -1.0739846898
H -11.1437344359 -3.4740276898 0.1307485268
H -10.8091113687 -1.7915248554 -0.3431059887
H -10.4285589208 -2.3511686599 1.3075504643
H -8.6676644190 -4.3650746034 -1.8296437261
H -9.8893874683 -4.9562978207 -0.6776167908
H -8.1709036173 -4.9694323320 -0.2265238870
H -9.1658765253 -0.5599061130 0.7536845730
H -7.2781399859 0.9730363161 0.8289133429
H 5.7539045966 -2.7201551165 1.1192664514
H 8.1410640860 -3.1969370021 1.1515707593
58
step=44 E=-2401.207242501719 Eh
C 10.5791099068 -2.8427939437 0.7461615742
N 10.0994270340 -1.5638198595 0.2834609658
C 11.0196968926 -0.6151462990 -0.2935249117
C 8.7441300036 -1.3105765017 0.2490595711
C 8.2338135489 -0.1012724315 -0.2703451070
C 6.8681348234 0.1472514257 -0.2954318362
C 5.9379275139 -0.7801304941 0.1907468440
C 4.4875753671 -0.5248131769 0.1563726835
C 3.4577397519 -1.4327007518 0.1212088995
C 2.1705070783 -0.8248825560 0.0993038895
C 2.2301917589 0.5435906173 0.1150743555
C 1.0962227971 1.4706121477 0.0906193498
C 1.1603860913 2.8391205265 0.0996954029
S -0.4196253570 3.5069984802 0.0623774833
C -1.0723643115 1.8971928540 0.0353076099
C -2.5098983204 1.6578068028 -0.0041392078
C -3.5351673989 2.5697627621 -0.0516918659
C -4.8137936644 1.9540112799 -0.0894452359
C -4.7491402407 0.5795381706 -0.0681368745
C -5.8669459073 -0.3786985240 -0.0952018669
C -5.7262751856 -1.6727455501 -0.6127661732
C -6.7883043943 -2.5655053774 -0.6503339985
C -8.0639949704 -2.2001790111 -0.1671751719
N -9.1245188803 -3.0786022595 -0.2015764851
C -10.4282647030 -2.6476002478 0.2400157955
C -8.9473911690 -4.3960881730 -0.7613027447
C -8.2059281042 -0.8947727014 0.3540390046
C -7.1310532791 -0.0185164677 0.3899163796
S -3.1097810543 0.0405070599 0.0085998451
N -0.1775757771 0.9566532234 0.0541834071
S 3.8671414208 1.0913697059 0.1711987096
C 6.4449877256 -1.9794136412 0.7078653670
C 7.8062680605 -2.2486801562 0.7337579079
H 10.2781713664 -3.0416894362 1.7898579892
H 11.6760535974 -2.8537719465 0.7119360170
H 10.2122950830 -3.6827070253 0.1263129464
H 12.0464453536 -0.9820611568 -0.1684184882
H 10.9565490612 0.3707685269 0.2000196042
H 10.8449262617 -0.4593683083 -1.3748535914
H 8.9083555854 0.6572610188 -0.6689980691
H 6.5152861130 1.0913809739 -0.7228093908
H 3.6209781550 -2.5115353869 0.0863268885
H 1.2200498322 -1.3589761814 0.0624100087
H 2.0480401147 3.4702497427 0.1250724606
H -3.3751538480 3.6505993375 -0.0717537821
H -5.7529271269 2.5056538537 -0.1584483590
H -4.7595454101 -1.9913104225 -1.0158661843
H -6.6200324278 -3.5567234046 -1.0726135419
H -11.1426053680 -3.4730152009 0.1270019750
H -10.8071483155 -1.7908307693 -0.3474038922
H -10.4283921005 -2.3496823985 1.3039391623
H -8.6646224433 -4.3659221155 -1.8300950604
H -9.8876017011 -4.9561158404 -0.6788752294
H -8.1695695859 -4.9691440621 -0.2260283380
H -9.1650272828 -0.5586698266 0.7496846961
H -7.2772866778 0.9742066150 0.8253654782
H 5.7543289030 -2.7220880315 1.1175855856
H 8.1413272610 -3.1996189811 1.1496670517
58
step=45 E=-2401.207243180459 Eh
C 10.5796490643 -2.8465726828 0.7442544544
N 10.1004793157 -1.5670689261 0.2824895557
C 11.0212088905 -0.6180015820 -0.2931026720
C 8.7452909203 -1.3132559278 0.2482498621
C 8.2354453488 -0.1034125155 -0.2703588293
C 6.8698559564 0.1456207345 -0.2953732069
C 5.9392786905 -0.7817663620 0.1900814292
C 4.4890110656 -0.5259972807 0.1556348580
C 3.4589329789 -1.4335888115 0.1198940684
C 2.1718788652 -0.8254120746 0.0978648954
C 2.2319364164 0.5430370849 0.1141839926
C 1.0981760406 1.4703045391 0.0895953871
C 1.1625719020 2.8388048349 0.0981118039
S -0.4173424849 3.5069328336 0.0607156407
C -1.0703423502 1.8972267749 0.0341915201
C -2.5078941352 1.6579774109 -0.0052655029
C -3.5331090972 2.5699548598 -0.0534679955
C -4.8117539485 1.9542370384 -0.0911794649
C -4.7471690751 0.5797655128 -0.0692500717
C -5.8649850896 -0.3784572917 -0.0963125051
C -5.7239342508 -1.6730079079 -0.6125159640
C -6.7860373206 -2.5656606722 -0.6504346716
C -8.0621866287 -2.1997494593 -0.1689366193
N -9.1228210067 -3.0780174611 -0.2038092504
C -10.4269003447 -2.6465233380 0.2363074220
C -8.9453558045 -4.3959417214 -0.7623993284
C -8.2044621561 -0.8939076361 0.3510981296
C -7.1295277928 -0.0177383725 0.3872665135
S -3.1078441178 0.0407090565 0.0080438512
N -0.1757086818 0.9565508101 0.0533950100
S 3.8690156298 1.0903532502 0.1710029877
C 6.4458784338 -1.9815742117 0.7064394890
C 7.8070568597 -2.2513368061 0.7322747715
H 10.2786252127 -3.0461633307 1.7877979146
H 11.6765879257 -2.8579679381 0.7100228377
H 10.2125065541 -3.6858489752 0.1237455846
H 12.0478210016 -0.9852772446 -0.1679375239
H 10.9580628520 0.3674117766 0.2014456243
H 10.8469421790 -0.4610543908 -1.3743427597
H 8.9102836982 0.6551451937 -0.6684634088
H 6.5173824408 1.0901692141 -0.7221326855
H 3.6218780666 -2.5124534731 0.0846134553
H 1.2212802470 -1.3592218533 0.0605292628
H 2.0503293912 3.4698016836 0.1231418612
H -3.3730472168 3.6507748654 -0.0740025207
H -5.7508382358 2.5059081030 -0.1605972442
H -4.7568101657 -1.9921137839 -1.0142366079
H -6.6174315920 -3.5572887175 -1.0716153284
H -11.1413299826 -3.4718124979 0.1229411485
H -10.8049791092 -1.7899224371 -0.3518681248
H -10.4280110891 -2.3481362900 1.3001023758
H -8.6615132874 -4.3665751672 -1.8309282248
H -9.8857464045 -4.9557461297 -0.6805182342
H -8.1681640356 -4.9687564425 -0.2259529928
H -9.1639117872 -0.5573441866 0.7454986021
H -7.2761207563 0.9754015510 0.8216376326
H 5.7549324317 -2.7242903385 1.1155979143
H 8.1417473942 -3.2026592186 1.1476008827
58
step=46 E=-2401.207243545301 Eh
C 10.5799568486 -2.8486845895 0.7433387390
N 10.1010767022 -1.5689063197 0.2820391809
C 11.0220870628 -0.6196429524 -0.2927703456
C 8.7459488792 -1.3147840505 0.2478309317
C 8.2363878498 -0.1046495342 -0.2703775319
C 6.8708484377 0.1446607597 -0.2954069802
C 5.9400503542 -0.7827243103 0.1896220026
C 4.4898316217 -0.5266985028 0.1550741957
C 3.4596207847 -1.4341235256 0.1189621605
C 2.1726684902 -0.8257426856 0.0968403247
C 2.2329298734 0.5426947165 0.1134946567
C 1.0992903811 1.4701069917 0.0888520292
C 1.1638261035 2.8386011186 0.0971237695
S -0.4160308103 3.5068812852 0.0597257450
C -1.0691881626 1.8972372346 0.0334391311
C -2.5067527306 1.6580706223 -0.0059906822
C -3.5319390808 2.5700646417 -0.0544397043
C -4.8105976698 1.9543699238 -0.0921034240
C -4.7460475649 0.5798990124 -0.0699348993
C -5.8638766472 -0.3783072244 -0.0969947506
C -5.7226519542 -1.6730893206 -0.6125753964
C -6.7847983280 -2.5656811798 -0.6506664650
C -8.0611578310 -2.1994987066 -0.1699374772
N -9.1218489081 -3.0776861586 -0.2050422022
C -10.4260726920 -2.6459668602 0.2344240079
C -8.9442373895 -4.3958038240 -0.7631314653
C -8.2035813646 -0.8934616478 0.3495672128
C -7.1286191209 -0.0173335175 0.3858731561
S -3.1067390945 0.0408187517 0.0075403041
N -0.1746461253 0.9564774688 0.0527617082
S 3.8700814492 1.0897465802 0.1707387041
C 6.4463716964 -1.9828161017 0.7055978104
C 7.8074936990 -2.2528484615 0.7314611404
H 10.2788586264 -3.0486280524 1.7867962579
H 11.6768943149 -2.8603062342 0.7091332877
H 10.2126515678 -3.6876309027 0.1224845994
H 12.0486170413 -0.9871204189 -0.1675211176
H 10.9589259088 0.3655075673 0.2023008128
H 10.8481448168 -0.4620807028 -1.3739730987
H 8.9114055062 0.6539155383 -0.6681644243
H 6.5185930926 1.0894325532 -0.7218518327
H 3.6224018710 -2.5130051964 0.0834510913
H 1.2219902114 -1.3593905059 0.0592292019
H 2.0516472717 3.4695149400 0.1219943867
H -3.3718502545 3.6508771250 -0.0751634716
H -5.7496575986 2.5060642415 -0.1616601450
H -4.7553467147 -1.9924522577 -1.0136552492
H -6.6160421957 -3.5574967735 -1.0713450450
H -11.1405569673 -3.4711813265 0.1208606676
H -10.8037736989 -1.7894128386 -0.3540593037
H -10.4276251470 -2.3474073252 1.2981721108
H -8.6599018333 -4.3667875246 -1.8315383052
H -9.8847135859 -4.9555019337 -0.6815094613
H -8.1673413225 -4.9685256015 -0.2261564447
H -9.1631904772 -0.5566898699 0.7434005144
H -7.2753758379 0.9759956814 0.8197558010
H 5.7552495549 -2.7255473314 1.1144301026
H 8.1419669092 -3.2043758618 1.1464929367
