58
0 1 Before single point calculation
C -3.722352315 4.224774327 1.242147283
N -3.770427999 3.474892214 -0.011344300
C -3.579904451 4.236792870 -1.244567267
C -3.824681764 2.064814880 -0.022311629
C -3.844397170 1.334578656 1.169636209
C -3.771410577 -0.037027498 1.161551007
C -3.682316412 -0.740813576 -0.038003350
C -3.490364669 -2.215563185 -0.042986748
C -4.514868586 -3.109366524 -0.079482020
S -3.927094988 -4.729986115 -0.074739625
C -2.280282897 -4.213981610 -0.024505499
C -2.186795643 -2.859463856 -0.010880042
C -0.912026647 -2.107961398 0.029607042
C 0.321575561 -2.685531347 0.066328420
S 1.541229459 -1.479375978 0.107072861
C 0.304357983 -0.236037391 0.063637369
C 0.542277813 1.200255988 0.060409353
C -0.485479097 2.086756732 0.057846242
S 0.075843063 3.710679466 0.037179117
C 1.730305761 3.218046649 0.027986828
C 1.839312024 1.860431654 0.041941402
C 3.138851948 1.140378009 0.023100950
C 3.809313523 0.914578663 -1.176006692
C 4.998443464 0.229119601 -1.198932889
C 5.569852870 -0.260463839 -0.021585719
N 6.783331526 -0.979278884 -0.045233503
C 7.558491941 -1.131173466 -1.275073623
C 7.304124270 -1.638485912 1.150938329
C 4.897080444 -0.021382433 1.179504131
C 3.708418577 0.664501824 1.200336103
N -0.899671684 -0.730061611 0.029175890
C -3.698467890 -0.020149562 -1.230653968
C -3.771400736 1.351401588 -1.223561943
H -4.591155421 3.988741052 1.853365619
H -3.720850691 5.297083682 1.058501783
H -2.818380274 3.970760424 1.792572560
H -4.417512083 4.070746472 -1.919831465
H -2.658415062 3.926796984 -1.734574072
H -3.513560986 5.303794182 -1.042088764
H -3.886151954 1.857160935 2.108348852
H -3.750185221 -0.586794553 2.086740835
H -5.553624935 -2.844914430 -0.107084066
H -1.448904948 -4.890392149 -0.006318429
H 0.517157028 -3.739095510 0.071394571
H -1.518326225 1.809813731 0.062992745
H 2.560777210 3.895949728 0.010164261
H 3.371844378 1.277299438 -2.090320155
H 5.491597346 0.052927602 -2.138085851
H 7.724204504 -0.159192305 -1.735739464
H 8.530505637 -1.576222393 -1.072469711
H 7.025364231 -1.771696052 -1.974985296
H 8.136273723 -2.295246904 0.904971336
H 6.526028736 -2.242645657 1.613925997
H 7.651405394 -0.894674955 1.865653651
H 5.320246186 -0.378063373 2.101452889
H 3.194059021 0.835303595 2.130525751
H -3.620023118 -0.556787119 -2.160529716
H -3.759428118 1.887348849 -2.155693280
