51
0 1 Before single point calculation
C 5.609743429 -1.366952139 0.010513031
C 5.075357595 -2.607081276 0.010669753
C 3.675505737 -2.917292904 -0.009905721
C 3.160735890 -4.189194849 -0.088869835
C 1.752602012 -4.244627254 -0.127073646
C 1.148920183 -3.014029177 -0.070952455
C -0.256902371 -2.750764554 -0.093454175
C -0.751835031 -1.501755877 -0.026600332
C -2.151482879 -1.128284524 -0.034443254
C -2.500897465 0.223266270 0.029348773
C -3.818066141 0.613860056 0.026524309
C -4.835913809 -0.328607026 -0.038529571
N -6.215743426 0.082873968 -0.040416391
C -6.745890599 1.237787376 -0.574962420
C -8.093801813 1.191909876 -0.340569551
N -8.419631239 0.058660251 0.318600732
C -7.302238850 -0.598491247 0.494737071
C -4.498236922 -1.674471770 -0.102092526
C -3.181930210 -2.069854821 -0.100778810
S 2.360293638 -1.773499212 0.045525797
C 4.845447393 -0.107232863 0.036161469
C 4.213895313 0.330562027 1.201504397
C 3.471040376 1.485129385 1.209827926
C 3.336902793 2.248793458 0.057833121
N 2.522621933 3.436255994 0.057396990
C 2.716161346 4.590201608 -0.671369337
C 1.681374168 5.428642186 -0.353947561
N 0.853254511 4.840116640 0.536366510
C 1.356453766 3.657226096 0.779967202
C 3.983911178 1.835377799 -1.099245349
C 4.727500146 0.680865323 -1.111106184
H 6.684561967 -1.276763991 -0.036517240
H 5.744706388 -3.451038574 -0.012240139
H 3.786356164 -5.067451044 -0.133130750
H 1.195302471 -5.165959187 -0.197504311
H -0.921536322 -3.591940404 -0.164525596
H -0.043366483 -0.695393616 0.041555359
H -1.720985145 0.963576303 0.082602066
H -4.076334098 1.656510572 0.085595985
H -6.193322271 2.007727939 -1.088328737
H -8.816523231 1.941220206 -0.633274115
H -7.238475221 -1.546939087 1.007523342
H -5.285154465 -2.405561379 -0.162907947
H -2.944016561 -3.117170628 -0.151067645
H 4.302669522 -0.264471350 2.094176788
H 2.980959134 1.810519880 2.110553093
H 3.536727275 4.782511410 -1.343192366
H 1.526678519 6.424892814 -0.745132732
H 0.906122472 2.938708771 1.448873406
H 3.877355178 2.423442336 -1.993748151
H 5.213136572 0.357094795 -2.015498483
