69
0 1 Before single point calculation
C 5.144475696 3.492594773 -0.333535436
N 5.702219844 2.372278621 0.433534637
C 6.595067100 2.782678162 1.514992297
C 5.095015722 1.094988897 0.437261540
C 4.864389908 0.439003257 1.638190054
C 4.166034867 -0.753832234 1.693864571
C 3.668887842 -1.351584781 0.554157826
C 2.877255235 -2.605993223 0.651831383
C 3.440336192 -3.843562710 0.713330086
S 2.237504405 -5.075542806 0.803392888
C 0.950153221 -3.928883765 0.762773406
C 1.421334593 -2.656244760 0.679276329
C 0.544144434 -1.498589749 0.638852026
N -0.756220361 -1.572562200 0.743865776
N -1.382359113 -0.395223545 0.700115871
C -0.594694669 0.636038342 0.547231519
C -1.034788502 2.018030880 0.464917246
C -0.178011540 3.074688626 0.449076577
S -1.028258356 4.572882088 0.378862727
C -2.563861961 3.787911786 0.367162974
C -2.429027438 2.434048075 0.404252939
C -3.580225416 1.497960561 0.376576195
C -4.452159197 1.447394240 1.445866247
C -5.531854291 0.582101253 1.459611493
C -5.799103478 -0.271206941 0.398221999
N -6.962992461 -1.075600891 0.414361302
C -7.872943746 -1.152378006 -0.734180100
C -7.562131064 -1.504090194 1.676348106
C -4.887151205 -0.283544525 -0.711783737
C -5.006677541 -1.208340054 -1.766850785
C -4.135931989 -1.200895270 -2.818452441
C -3.094153719 -0.274628302 -2.862391405
C -2.925413684 0.613066032 -1.841847197
C -3.796510230 0.621817514 -0.732159241
S 1.066509014 0.148239421 0.451755263
C 3.928823205 -0.747474872 -0.711132154
C 3.484021563 -1.343701066 -1.909251715
C 3.774572037 -0.788490514 -3.119778221
C 4.533989247 0.379554683 -3.189271790
C 4.970282276 0.986597881 -2.046710989
C 4.658868540 0.464071967 -0.776861318
H 4.231854997 3.190792592 -0.843700678
H 5.866759066 3.846365102 -1.066674543
H 4.897616396 4.316100111 0.333744430
H 7.214334680 1.944648127 1.828880267
H 6.018745308 3.138175700 2.366901187
H 7.250641125 3.583187029 1.177759007
H 5.193253870 0.899067729 2.553074038
H 3.974912284 -1.220933155 2.644840897
H 4.495674244 -4.032599522 0.706341580
H -0.089950286 -4.186160059 0.799969130
H 0.890147815 2.990133145 0.483331820
H -3.502221467 4.304753779 0.322994388
H -4.276486106 2.099437266 2.284195547
H -6.204561615 0.593287606 2.298599631
H -7.529561142 -0.505697210 -1.539363595
H -7.938205214 -2.176063486 -1.097899287
H -8.869330128 -0.824802888 -0.443291565
H -8.194422979 -0.716537912 2.081601476
H -6.783513709 -1.742734846 2.398261937
H -8.168334945 -2.394755541 1.521910592
H -5.775234950 -1.957789040 -1.719186022
H -4.245868724 -1.918547098 -3.614895240
H -2.411264320 -0.275326724 -3.696103293
H -2.104617881 1.308040463 -1.862337386
H 2.910078498 -2.252063168 -1.854226069
H 3.429120820 -1.257606616 -4.026221343
H 4.781536402 0.798431675 -4.150654514
H 5.593326751 1.859581802 -2.113502342
