58
0 1 Before single point calculation
C 12.298522358 -2.566095093 0.420964088
C 10.969163050 -2.423681546 0.715821984
N 10.532620718 -1.312757671 0.027497350
C 9.205527345 -0.752432741 0.018924901
C 9.019090807 0.621953773 -0.048233450
C 7.754185507 1.160180343 -0.052028238
C 6.626541399 0.338628997 0.009793360
C 5.276051863 0.882460540 0.007479819
C 4.919356761 2.203967549 0.021976831
C 3.523738014 2.424704245 0.016273639
C 2.778661047 1.279867667 -0.004360960
C 1.330801634 1.231921555 -0.014348079
C 0.673164675 0.016075621 -0.047211236
C -0.685139690 0.020299502 -0.050611240
C -1.335753890 1.240022653 -0.020421141
C -2.783342299 1.295495809 -0.013610549
C -3.524404169 2.442620276 0.017716934
C -4.920908094 2.226481815 0.023356681
C -5.281925632 0.906508476 -0.004679483
C -6.632943551 0.364231798 -0.003097592
C -7.760422633 1.185386984 0.066389997
C -9.025262832 0.646553810 0.070684274
C -9.211909309 -0.727915280 0.004783551
N -10.538295145 -1.289393428 0.012182490
C -11.648876101 -0.811797352 0.673099447
C -12.671252109 -1.677821343 0.391531465
N -12.239677676 -2.668923654 -0.417667442
C -10.971756007 -2.436468185 -0.640843866
C -8.096804052 -1.551873300 -0.065347478
C -6.832083458 -1.015326626 -0.068441356
S -3.846622733 -0.083417553 -0.044290426
N -0.646394525 2.388404361 0.007692808
N 0.647897222 2.384347125 0.010117000
S 3.837207240 -0.103276528 -0.014323462
C 6.825470358 -1.041089405 0.074239765
C 8.090595186 -1.577132678 0.080286712
C 11.649630068 -0.847539395 -0.654474933
N 12.700565947 -1.591610695 -0.422777846
H 12.955920234 -3.337660292 0.798197322
H 10.369613651 -3.037878527 1.367844635
H 9.882895734 1.262138992 -0.087334863
H 7.630007190 2.227027860 -0.105672477
H 5.634936192 3.010570471 0.041999679
H 3.073100957 3.405231097 0.027527090
H 1.234110277 -0.901849871 -0.068238024
H -1.251622326 -0.894163164 -0.074062613
H -3.070428515 3.421333370 0.039301488
H -5.633849653 3.035159657 0.047760100
H -7.636197887 2.252338966 0.118193955
H -9.888802306 1.286730449 0.116272334
H -11.682550226 0.064905807 1.299454384
H -13.687286524 -1.603913362 0.754350459
H -10.348646934 -3.057066056 -1.268204533
H -8.236831806 -2.617524261 -0.106448814
H -5.972669097 -1.659701050 -0.121046270
H 5.965696173 -1.686073083 0.119618579
H 8.231726638 -2.642719799 0.123132364
H 11.654037792 0.013008341 -1.307498960
