20
0 1 Before single point calculation
N 1.608785124 0.000066369 -0.140237236
C 0.231782942 0.000305282 -0.052539099
C -0.497737481 1.196697611 -0.024803532
C -0.497458213 -1.196295521 -0.025781483
C 2.331275280 1.231951961 0.066817028
C 2.330198330 -1.232469366 0.068450424
C -1.877805677 1.189932860 0.016157199
C -1.877510954 -1.189987111 0.015589158
C -2.583597048 -0.000103211 0.036742418
H 0.008553923 2.147945698 -0.034506790
H 0.008919858 -2.147498820 -0.037681600
H 2.055661687 1.964178827 -0.694678635
H 3.398554914 1.043685327 -0.026599622
H 2.142244271 1.666798878 1.056415696
H 2.131691017 -1.671470289 1.054439311
H 2.062166284 -1.961643654 -0.699039489
H 3.398238490 -1.042957351 -0.013619058
H -2.407412734 2.132018543 0.037614172
H -2.407025153 -2.132160353 0.035497534
H -3.662367600 -0.000207983 0.071801203
20
step=1 E=-366.245320500330 Eh
N 1.6087851411 0.0000663694 -0.1402372315
C 0.2317829416 0.0003052823 -0.0525391001
C -0.4977374805 1.1966975905 -0.0248035307
C -0.4974581807 -1.1962954899 -0.0257814820
C 2.3312752535 1.2319519690 0.0668170315
C 2.3301983196 -1.2324693085 0.0684504216
C -1.8778055528 1.1899328431 0.0161571984
C -1.8775109228 -1.1899870414 0.0155891585
C -2.5835969914 -0.0001032107 0.0367424195
H 0.0085539221 2.1479455712 -0.0345067887
H 0.0089198587 -2.1474987922 -0.0376815979
H 2.0556616589 1.9641787727 -0.6946785796
H 3.3985548734 1.0436853385 -0.0265996217
H 2.1422443217 1.6667988811 1.0564156594
H 2.1316910623 -1.6714702829 1.0544392725
H 2.0621661834 -1.9616435799 -0.6990394390
H 3.3982384307 -1.0429573282 -0.0136190582
H -2.4074127202 2.1320185119 0.0376141702
H -2.4070251720 -2.1321601991 0.0354975301
H -3.6623675939 -0.0002079825 0.0718011982
20
step=2 E=-366.245328125484 Eh
N 1.6181683707 -0.0108431451 -0.1496046044
C 0.2388659621 -0.0089008769 -0.0691945049
C -0.4786706930 1.1974071919 -0.0315929734
C -0.4928929942 -1.2066562154 -0.0312573750
C 2.3062976747 1.2419051719 0.0678198621
C 2.3385927937 -1.2456643596 0.0666634596
C -1.8624587855 1.1888453575 0.0192938644
C -1.8764838347 -1.1814442492 0.0195590507
C -2.5881476530 0.0079622499 0.0428060557
H 0.0394247359 2.1468976344 -0.0416721816
H 0.0138148564 -2.1622688036 -0.0419193417
H 2.0295259220 1.9814138704 -0.6876211426
H 3.3784214751 1.0772451388 -0.0151458455
H 2.1004715632 1.6740958758 1.0564813761
H 2.1384739942 -1.6868987192 1.0523938858
H 2.0864322825 -1.9896118039 -0.6931798790
H 3.4063318563 -1.0516850041 -0.0087159097
H -2.3854120116 2.1382626184 0.0443080146
H -2.4107809902 -2.1245221473 0.0445410796
H -3.6703429110 0.0143869646 0.0838760862
20
step=3 E=-366.245510284727 Eh
N 1.6178883806 -0.0047362585 -0.1493747394
C 0.2376682005 -0.0012985774 -0.0691505789
C -0.4871776806 1.2010585106 -0.0307391936
C -0.4906345440 -1.2013234798 -0.0320152581
C 2.3199778554 1.2401686065 0.0668074328
C 2.3306546540 -1.2430961530 0.0680295551
C -1.8709080959 1.1883543304 0.0199809303
C -1.8742569069 -1.1853150139 0.0186565747
C -2.5884873367 0.0025250025 0.0425221626
H 0.0262958380 2.1528016249 -0.0401038175
H 0.0207573705 -2.1544274469 -0.0432660059
H 2.0502855975 1.9825519607 -0.6882547565
H 3.3902579065 1.0636590070 -0.0178479774
H 2.1204533181 1.6747092358 1.0557582898
H 2.1280207886 -1.6821598393 1.0542647261
H 2.0738619274 -1.9862446088 -0.6910305931
H 3.3996247995 -1.0554695151 -0.0077470896
H -2.3984937871 2.1354246070 0.0455814877
H -2.4043866268 -2.1309943425 0.0429504029
H -3.6706280445 0.0040419302 0.0834730514
20
step=4 E=-366.245345695156 Eh
N 1.6152821186 -0.0036361941 -0.1472224995
C 0.2336296180 -0.0126377318 -0.0653782581
C -0.4837804737 1.1929184397 -0.0291506097
C -0.4986765207 -1.2100249197 -0.0307744645
C 2.3209887634 1.2364978760 0.0682302697
C 2.3390521348 -1.2327021370 0.0697713814
C -1.8663079918 1.1995403514 0.0200323125
C -1.8810751796 -1.1972057066 0.0184372820
C -2.5690787606 0.0055135071 0.0423629074
H 0.0383283021 2.1388630713 -0.0402089401
H 0.0098027769 -2.1630500893 -0.0437233079
H 2.0449471887 1.9778411541 -0.6852044701
H 3.3911279008 1.0595503314 -0.0233524601
H 2.1260904011 1.6682745603 1.0592785051
H 2.1423696816 -1.6717437430 1.0572417367
H 2.0841865158 -1.9759754975 -0.6892758263
H 3.4066681507 -1.0362794672 -0.0103701582
H -2.3922747357 2.1472155155 0.0449697411
H -2.4197295747 -2.1377740306 0.0419105817
H -3.6501312228 0.0122709477 0.0830013692
20
step=5 E=-366.245502188718 Eh
N 1.6168507994 -0.0015597915 -0.1472226711
C 0.2351370311 -0.0064521227 -0.0654600261
C -0.4876993508 1.1960736706 -0.0288457619
C -0.4948996005 -1.2049047058 -0.0310501066
C 2.3277350201 1.2359087115 0.0677400699
C 2.3352544770 -1.2340193009 0.0702756336
C -1.8706610574 1.1958867435 0.0203297885
C -1.8777667499 -1.1946856637 0.0181545893
C -2.5746950737 0.0026999975 0.0425184141
H 0.0301380853 2.1444710311 -0.0396005160
H 0.0158620370 -2.1570236202 -0.0441592926
H 2.0550760559 1.9784595550 -0.6857718976
H 3.3970285404 1.0543107901 -0.0238955823
H 2.1348741808 1.6690318243 1.0586630403
H 2.1365455965 -1.6720318473 1.0578584195
H 2.0773189432 -1.9766574190 -0.6884688747
H 3.4037220367 -1.0425089773 -0.0097512055
H -2.3985742355 2.1423652944 0.0454736719
H -2.4121069449 -2.1376041401 0.0413684097
H -3.6560889991 0.0059589441 0.0831510462
20
step=6 E=-366.245593193772 Eh
N 1.6218892037 0.0000581784 -0.1477123365
C 0.2404730071 0.0007222439 -0.0683648911
C -0.4854063733 1.2019569560 -0.0285239457
C -0.4865344667 -1.1998738619 -0.0322588430
C 2.3345173484 1.2379113387 0.0672403006
C 2.3309369996 -1.2389200915 0.0716668801
C -1.8690484723 1.1901070693 0.0223267215
C -1.8702123402 -1.1914353412 0.0186587059
C -2.5787499067 -0.0004203163 0.0440957607
H 0.0284431833 2.1535516241 -0.0381911196
H 0.0280872018 -2.1510958117 -0.0457024475
H 2.0666718796 1.9839820119 -0.6848815618
H 3.4031506977 1.0535195856 -0.0239147434
H 2.1434935078 1.6730553551 1.0579084019
H 2.1305874873 -1.6745189134 1.0601832715
H 2.0686764138 -1.9841222380 -0.6834751559
H 3.4005329503 -1.0556160370 -0.0095166553
H -2.3988232888 2.1360584937 0.0489036377
H -2.3994248168 -2.1378183828 0.0420980267
H -3.6609216812 -0.0000673725 0.0856630741
20
step=7 E=-366.245589835704 Eh
N 1.6254933740 -0.0015402230 -0.1461666058
C 0.2437443086 -0.0010161161 -0.0657192961
C -0.4857754124 1.1975994828 -0.0271533040
C -0.4839643158 -1.2006728362 -0.0304829924
C 2.3379858523 1.2351574907 0.0685832201
C 2.3387815703 -1.2373686991 0.0723592154
C -1.8689455553 1.1917375901 0.0225685572
C -1.8671304757 -1.1866307717 0.0192724131
C -2.5790609946 0.0020588874 0.0445399995
H 0.0279063748 2.1485416084 -0.0374027698
H 0.0275569633 -2.1527563811 -0.0439329245
H 2.0663205599 1.9802631281 -0.6829131521
H 3.4066142667 1.0517004279 -0.0258171921
H 2.1487167456 1.6684102363 1.0603146318
H 2.1420427139 -1.6720760307 1.0619221968
H 2.0750168691 -1.9822863106 -0.6822292771
H 3.4078604728 -1.0518125640 -0.0125405442
H -2.3967609927 2.1383522237 0.0484650638
H -2.3968473762 -2.1321643545 0.0424369495
H -3.6607926577 0.0014354780 0.0856723293
20
step=8 E=-366.245601281174 Eh
N 1.6268517495 -0.0005596704 -0.1455318583
C 0.2451068359 0.0004514097 -0.0650660870
C -0.4822141853 1.2002799239 -0.0264453421
C -0.4838724242 -1.1986041504 -0.0298702987
C 2.3406548662 1.2353406098 0.0690261048
C 2.3391688737 -1.2368304279 0.0729812764
C -1.8653725818 1.1897339031 0.0231674363
C -1.8670631080 -1.1900561396 0.0197899496
C -2.5760607456 0.0002671153 0.0450444400
H 0.0308745759 2.1516197094 -0.0365835536
H 0.0289605989 -2.1499603720 -0.0433926451
H 2.0686262499 1.9810741717 -0.6817012797
H 3.4090559746 1.0511560269 -0.0268743889
H 2.1530166082 1.6682679391 1.0612337416
H 2.1436282467 -1.6705779403 1.0632441456
H 2.0734120309 -1.9821261253 -0.6805271239
H 3.4083113748 -1.0524813199 -0.0139025016
H -2.3943634508 2.1356493761 0.0491750418
H -2.3961829127 -2.1360138165 0.0428768719
H -3.6577877260 0.0008712227 0.0861563634
20
step=9 E=-366.245602203862 Eh
N 1.6292868539 -0.0002943623 -0.1454393764
C 0.2477457720 0.0003758278 -0.0656561680
C -0.4791417933 1.2009130885 -0.0258090599
C -0.4791532814 -1.2001750415 -0.0296224664
C 2.3420204639 1.2368741146 0.0694591091
C 2.3396114761 -1.2381166132 0.0736758274
C -1.8626628617 1.1915664657 0.0245633983
C -1.8626359278 -1.1907118969 0.0207924074
C -2.5709285861 0.0004007954 0.0461844466
H 0.0348841902 2.1522058761 -0.0354895800
H 0.0350845047 -2.1514097910 -0.0429614219
H 2.0698200233 1.9841723775 -0.6797787806
H 3.4104504427 1.0536693201 -0.0273839343
H 2.1553056414 1.6694672802 1.0621130280
H 2.1454292210 -1.6706930119 1.0648287590
H 2.0722509908 -1.9852228304 -0.6776324522
H 3.4087968901 -1.0554780199 -0.0151999734
H -2.3921670302 2.1375787779 0.0511322187
H -2.3922239662 -2.1367483432 0.0442246846
H -3.6529544448 0.0003506309 0.0876526476
20
step=10 E=-366.245605757256 Eh
N 1.6307388034 -0.0003736442 -0.1450044970
C 0.2490621694 -0.0001253425 -0.0649981201
C -0.4779367377 1.2001401538 -0.0253129443
C -0.4786122266 -1.2001179579 -0.0290056419
C 2.3439838467 1.2361967453 0.0699058988
C 2.3423240517 -1.2372401626 0.0739520472
C -1.8613179720 1.1908833948 0.0249082534
C -1.8619537124 -1.1899567632 0.0212654885
C -2.5708965675 0.0006367313 0.0465938336
H 0.0358643031 2.1513489868 -0.0350099677
H 0.0347059969 -2.1515739753 -0.0422369880
H 2.0710137144 1.9833753690 -0.6790795395
H 3.4123269187 1.0527828985 -0.0278951335
H 2.1580138767 1.6682369664 1.0629010311
H 2.1492637684 -1.6694837734 1.0654390287
H 2.0746469591 -1.9843111553 -0.6771541786
H 3.4113174496 -1.0537419900 -0.0160057802
H -2.3902896807 2.1370292968 0.0513847476
H -2.3915605737 -2.1358206105 0.0447003686
H -3.6528022759 0.0008855266 0.0879890336
20
step=11 E=-366.245607281295 Eh
N 1.6362131756 -0.0009615489 -0.1441772420
C 0.2545165901 0.0003862204 -0.0633590383
C -0.4731161518 1.2001492455 -0.0238466426
C -0.4738469754 -1.1990690604 -0.0270740158
C 2.3489447533 1.2355588481 0.0713172498
C 2.3484756413 -1.2373287699 0.0746844835
C -1.8563948155 1.1908487113 0.0263512003
C -1.8570938784 -1.1894421376 0.0231726900
C -2.5663155026 0.0008913604 0.0483260798
H 0.0402549849 2.1514348050 -0.0336690422
H 0.0391021692 -2.1505380822 -0.0399752928
H 2.0736243313 1.9833013143 -0.6761618323
H 3.4172299551 1.0531031976 -0.0290274979
H 2.1645801129 1.6658103458 1.0653809636
H 2.1582568979 -1.6679610789 1.0674261270
H 2.0782537780 -1.9851038591 -0.6746970965
H 3.4172594168 -1.0542255789 -0.0188855024
H -2.3852642252 2.1369449282 0.0527438745
H -2.3864364899 -2.1353474361 0.0468837494
H -3.6481183693 0.0011359614 0.0898116756
20
step=12 E=-366.245608765202 Eh
N 1.6419524797 -0.0005952562 -0.1430694353
C 0.2602745361 0.0000109012 -0.0615207927
C -0.4669946733 1.1999503807 -0.0219053078
C -0.4680178371 -1.1994840365 -0.0250012325
C 2.3554675725 1.2354184460 0.0726394631
C 2.3546330814 -1.2366493002 0.0757151181
C -1.8502526618 1.1906962893 0.0284019673
C -1.8512225543 -1.1893389995 0.0253644083
C -2.5604905966 0.0009626360 0.0505022450
H 0.0464168942 2.1511916169 -0.0316857306
H 0.0446796058 -2.1510704458 -0.0376875311
H 2.0784326734 1.9841023976 -0.6731873675
H 3.4234979041 1.0529407700 -0.0305912268
H 2.1735423627 1.6642552577 1.0677771415
H 2.1673988760 -1.6657362045 1.0697165084
H 2.0819380906 -1.9853096805 -0.6717965838
H 3.4231553874 -1.0538337528 -0.0215512342
H -2.3789519728 2.1368565929 0.0548880143
H -2.3807125782 -2.1351286400 0.0492883657
H -3.6422692997 0.0013430231 0.0921273880
20
step=13 E=-366.245610506274 Eh
N 1.6511143756 -0.0003838722 -0.1420260784
C 0.2694496198 -0.0001818366 -0.0593596590
C -0.4575058731 1.1999797808 -0.0192638419
C -0.4587376916 -1.1997717740 -0.0220083560
C 2.3649555469 1.2354532433 0.0744760839
C 2.3639679672 -1.2363733981 0.0769574166
C -1.8407951959 1.1908950602 0.0317649661
C -1.8419639044 -1.1893734628 0.0290755441
C -2.5509983993 0.0011147082 0.0542720322
H 0.0560567244 2.1511949811 -0.0291188493
H 0.0539072062 -2.1514566933 -0.0343974193
H 2.0860160415 1.9855991161 -0.6690996540
H 3.4327433916 1.0533197266 -0.0319421001
H 2.1855738664 1.6623309944 1.0709450671
H 2.1801837992 -1.6634764130 1.0724904000
H 2.0884463137 -1.9864075227 -0.6680566593
H 3.4321907167 -1.0540974381 -0.0246081990
H -2.3694179248 2.1371412310 0.0585267687
H -2.3716045625 -2.1351133569 0.0535760158
H -3.6327994753 0.0015979536 0.0964306895
20
step=14 E=-366.245612262622 Eh
N 1.6633890967 -0.0002776249 -0.1411812929
C 0.2817760538 0.0000032862 -0.0568302723
C -0.4450353229 1.2002777747 -0.0159497460
C -0.4461668367 -1.1996975458 -0.0182380387
C 2.3773295255 1.2354260790 0.0765851349
C 2.3760861613 -1.2363714381 0.0783122433
C -1.8283044894 1.1912508362 0.0364292191
C -1.8293872336 -1.1893710561 0.0341782134
C -2.5381861939 0.0012647188 0.0596888891
H 0.0685922313 2.1515078880 -0.0261316534
H 0.0666150299 -2.1513818359 -0.0305061701
H 2.0965045603 1.9872248224 -0.6645457437
H 3.4449003967 1.0538148846 -0.0328958840
H 2.2002352967 1.6599943024 1.0744680331
H 2.1955696920 -1.6611356005 1.0754705402
H 2.0974622837 -1.9879065353 -0.6639677394
H 3.4440639571 -1.0550727337 -0.0275586953
H -2.3569696599 2.1375043804 0.0636603932
H -2.3590102763 -2.1351401824 0.0595230887
H -3.6199822939 0.0017161536 0.1028468392
20
step=15 E=-366.245613202830 Eh
N 1.6721707504 -0.0003232757 -0.1408899936
C 0.2905387685 0.0001795935 -0.0552278811
C -0.4363343752 1.2004135866 -0.0137061334
C -0.4374366265 -1.1994643174 -0.0156963135
C 2.3860517776 1.2353042219 0.0778181247
C 2.3848166783 -1.2364310364 0.0790493677
C -1.8195729150 1.1914617013 0.0398719009
C -1.8206479635 -1.1892655647 0.0379059756
C -2.5293627699 0.0014109422 0.0638122070
H 0.0773031836 2.1516474675 -0.0242958757
H 0.0753645345 -2.1511462855 -0.0280868955
H 2.1043225222 1.9880826298 -0.6619517868
H 3.4535332067 1.0540466696 -0.0331266733
H 2.2099788403 1.6585041404 1.0764748082
H 2.2059233145 -1.6598678691 1.0770820597
H 2.1046912326 -1.9888650650 -0.6617225546
H 3.4526672275 -1.0556269614 -0.0289697900
H -2.3482207090 2.1377340759 0.0675001358
H -2.3502093547 -2.1350724825 0.0638934866
H -3.6111384472 0.0018627593 0.1078759771
20
step=16 E=-366.245613766459 Eh
N 1.6777869528 -0.0003887074 -0.1408566169
C 0.2961503767 0.0003410347 -0.0542384406
C -0.4307883978 1.2005019812 -0.0122865433
C -0.4318567006 -1.1992254475 -0.0141236799
C 2.3916420843 1.2351242398 0.0783958502
C 2.3904119943 -1.2364577090 0.0793663122
C -1.8139666996 1.1915393599 0.0421879354
C -1.8150221468 -1.1891165786 0.0403693085
C -2.5237571642 0.0015095954 0.0666543261
H 0.0827962095 2.1517374309 -0.0232591012
H 0.0809169014 -2.1508906333 -0.0267546046
H 2.1095198664 1.9883397910 -0.6607707253
H 3.4590925824 1.0540352533 -0.0331307728
H 2.2159308752 1.6576271216 1.0774138079
H 2.2121393096 -1.6592258087 1.0777991299
H 2.1095873824 -1.9892676726 -0.6607443336
H 3.4582247410 -1.0559370822 -0.0295429894
H -2.3425946393 2.1377960757 0.0701077262
H -2.3445017207 -2.1349395500 0.0667738433
H -3.6054898784 0.0019540423 0.1114164941
