64
0 1 Before single point calculation
C -10.804158528 -0.765875505 -1.239674057
N -9.854796114 0.198961793 -0.686918752
C -10.328719822 1.571710077 -0.517919258
C -8.530272483 -0.163608151 -0.383463264
C -8.054312965 -1.450984537 -0.649051322
C -6.756560683 -1.798687306 -0.369557283
C -5.867032088 -0.880542128 0.192206409
C -4.469306122 -1.254660774 0.474183326
C -4.139266043 -2.563066865 0.826645980
C -2.831613035 -2.931801200 1.045501482
C -1.825092647 -2.004675234 0.911336710
C -2.107028781 -0.684132825 0.571597455
C -1.023340985 0.271148495 0.416575226
C -1.135300724 1.621861566 0.227678363
N 0.019207002 2.333971693 0.109329602
C 1.077495647 1.565330005 0.183747521
C 2.443666442 2.023548358 0.072012712
C 2.702810998 3.382521527 -0.084483440
C 3.990676181 3.841741383 -0.228278170
C 5.042498501 2.953002838 -0.229723225
C 4.829451098 1.582949799 -0.074723815
C 5.952531036 0.630340574 -0.128775968
C 5.775995477 -0.654914809 -0.639798458
C 6.822412102 -1.537236946 -0.729616309
C 8.105943998 -1.176989271 -0.309362471
N 9.182716590 -2.075763538 -0.412180749
C 8.993341906 -3.442985167 -0.894696656
C 10.544131065 -1.682949347 -0.052193917
C 8.281249190 0.107702475 0.214286507
C 7.231411961 0.987708833 0.302447929
C 3.518583894 1.119824485 0.093363477
F 3.302717193 -0.200830322 0.316180338
S 0.664774215 -0.110375358 0.425419314
C -3.442288480 -0.307206867 0.366222598
F -3.742353865 0.977999942 0.067776415
C -6.342673669 0.402536960 0.458891415
C -7.639519073 0.754377648 0.180892344
H -10.869337737 -1.638662670 -0.592951059
H -10.482059569 -1.079266887 -2.230866072
H -11.799299907 -0.334314762 -1.323354074
H -11.342503442 1.686937066 -0.895456552
H -10.323482433 1.840983593 0.536444606
H -9.685209255 2.258043673 -1.064963358
H -8.713409536 -2.175515675 -1.092589731
H -6.406425691 -2.787491383 -0.609032137
H -4.924268139 -3.289919704 0.941307746
H -2.595681702 -3.947413213 1.317481819
H -0.800002059 -2.290650941 1.070073320
H -2.095744397 2.109317805 0.156114541
H 1.872160898 4.066713460 -0.097309845
H 4.175333530 4.896029736 -0.352517063
H 6.044656206 3.314792510 -0.378806173
H 4.793355602 -0.950529321 -0.963805483
H 6.654732363 -2.519487978 -1.133454794
H 9.914631953 -4.016959268 -0.821745074
H 8.679361961 -3.430478363 -1.936644177
H 8.234520955 -3.946998380 -0.299298928
H 10.603757974 -1.481556752 1.015585896
H 11.256550298 -2.469218525 -0.292703397
H 10.832072433 -0.788369331 -0.600969961
H 9.254716819 0.407355196 0.558775868
H 7.388099641 1.964921564 0.724484772
H -5.666163711 1.126535616 0.878293603
H -7.976384463 1.752358133 0.396753273
