20
0 1 Before single point calculation
N 1.608785124 0.000066369 -0.140237236
C 0.231782942 0.000305282 -0.052539099
C -0.497737481 1.196697611 -0.024803532
C -0.497458213 -1.196295521 -0.025781483
C 2.331275280 1.231951961 0.066817028
C 2.330198330 -1.232469366 0.068450424
C -1.877805677 1.189932860 0.016157199
C -1.877510954 -1.189987111 0.015589158
C -2.583597048 -0.000103211 0.036742418
H 0.008553923 2.147945698 -0.034506790
H 0.008919858 -2.147498820 -0.037681600
H 2.055661687 1.964178827 -0.694678635
H 3.398554914 1.043685327 -0.026599622
H 2.142244271 1.666798878 1.056415696
H 2.131691017 -1.671470289 1.054439311
H 2.062166284 -1.961643654 -0.699039489
H 3.398238490 -1.042957351 -0.013619058
H -2.407412734 2.132018543 0.037614172
H -2.407025153 -2.132160353 0.035497534
H -3.662367600 -0.000207983 0.071801203
20
step=1 E=-365.856964156880 Eh
N 1.6087851411 0.0000663694 -0.1402372315
C 0.2317829416 0.0003052823 -0.0525391001
C -0.4977374805 1.1966975905 -0.0248035307
C -0.4974581807 -1.1962954899 -0.0257814820
C 2.3312752535 1.2319519690 0.0668170315
C 2.3301983196 -1.2324693085 0.0684504216
C -1.8778055528 1.1899328431 0.0161571984
C -1.8775109228 -1.1899870414 0.0155891585
C -2.5835969914 -0.0001032107 0.0367424195
H 0.0085539221 2.1479455712 -0.0345067887
H 0.0089198587 -2.1474987922 -0.0376815979
H 2.0556616589 1.9641787727 -0.6946785796
H 3.3985548734 1.0436853385 -0.0265996217
H 2.1422443217 1.6667988811 1.0564156594
H 2.1316910623 -1.6714702829 1.0544392725
H 2.0621661834 -1.9616435799 -0.6990394390
H 3.3982384307 -1.0429573282 -0.0136190582
H -2.4074127202 2.1320185119 0.0376141702
H -2.4070251720 -2.1321601991 0.0354975301
H -3.6623675939 -0.0002079825 0.0718011982
20
step=2 E=-365.858631496620 Eh
N 1.6257246945 -0.0093855164 -0.1424863010
C 0.2420867987 -0.0066201110 -0.0691696583
C -0.4839184431 1.2048963000 -0.0306334895
C -0.4950317216 -1.2114574935 -0.0309196101
C 2.3177936638 1.2443321247 0.0673536755
C 2.3441899382 -1.2483878911 0.0670127495
C -1.8763122553 1.1955366366 0.0190645822
C -1.8872795161 -1.1890237006 0.0187115597
C -2.6052187546 0.0065847017 0.0417424597
H 0.0367696528 2.1645719866 -0.0405932636
H 0.0166415592 -2.1759550176 -0.0418787457
H 2.0412538002 1.9899352885 -0.6963568592
H 3.3994826388 1.0776415443 -0.0180381052
H 2.1154104090 1.6886650600 1.0619544721
H 2.1453043811 -1.7002817391 1.0588004787
H 2.0891950417 -1.9975429449 -0.7008574902
H 3.4223921588 -1.0572293031 -0.0104217888
H -2.4053097165 2.1538195853 0.0438230077
H -2.4252154010 -2.1423279433 0.0429836870
H -3.6982159256 0.0116175082 0.0820552458
20
step=3 E=-365.857512169441 Eh
N 1.6216720497 0.0314147344 -0.1240444062
C 0.2342596829 0.0336575616 -0.0621726987
C -0.5295662822 1.2249016962 -0.0198047351
C -0.4823125966 -1.1861851965 -0.0314809769
C 2.3974595034 1.2370171646 0.0615127534
C 2.2964775280 -1.2300020324 0.0764516238
C -1.9235000713 1.1960559851 0.0236684266
C -1.8758964793 -1.2190980842 0.0121437969
C -2.6001577144 -0.0254021189 0.0371866038
H -0.0305402097 2.1984002879 -0.0237531249
H 0.0597610991 -2.1371723412 -0.0458084799
H 2.1615559532 1.9957766933 -0.7062887825
H 3.4674037447 0.9977250154 -0.0392064329
H 2.2419325908 1.7069168027 1.0558520714
H 2.0927511134 -1.6796802661 1.0714035896
H 2.0081047557 -1.9726426614 -0.6897385622
H 3.3828032861 -1.0764583185 -0.0129084617
H -2.4805084834 2.1425434926 0.0505280188
H -2.3930362620 -2.1881586669 0.0297481455
H -3.6956818445 -0.0471805737 0.0729772050
20
step=4 E=-365.858688500079 Eh
N 1.6233583980 0.0101847541 -0.1403283702
C 0.2379222374 0.0146228119 -0.0681986738
C -0.5079087816 1.2149277312 -0.0275988785
C -0.4885627509 -1.1971107670 -0.0326934002
C 2.3572980554 1.2388200659 0.0643708502
C 2.3189605859 -1.2386073704 0.0710879448
C -1.9000067369 1.1953533400 0.0210873856
C -1.8806003667 -1.2030169785 0.0159899505
C -2.6021117341 -0.0096223550 0.0405691706
H 0.0005381868 2.1811148584 -0.0353880620
H 0.0377131162 -2.1542383723 -0.0454232068
H 2.1020452698 1.9931840584 -0.6988539521
H 3.4334807016 1.0360940430 -0.0268747605
H 2.1753687156 1.6912318425 1.0601059996
H 2.1133360626 -1.6855052289 1.0646610939
H 2.0496787180 -1.9854534317 -0.6951368989
H 3.4012408774 -1.0665129792 -0.0082567131
H -2.4430776441 2.1468968232 0.0474053231
H -2.4073336001 -2.1638095766 0.0380084514
H -3.6953764751 -0.0185492622 0.0801763414
20
step=5 E=-365.858853190105 Eh
N 1.6222322197 0.0024476774 -0.1399019166
C 0.2372412661 0.0009604331 -0.0677363574
C -0.4964578203 1.2069606051 -0.0282498287
C -0.4947513345 -1.2064944190 -0.0315563184
C 2.3383807231 1.2399162312 0.0658298423
C 2.3310851818 -1.2383612431 0.0696294237
C -1.8875956816 1.1979246499 0.0203701736
C -1.8858375562 -1.2001943285 0.0170450052
C -2.5971638135 -0.0016349426 0.0407449805
H 0.0203006247 2.1681965749 -0.0369407339
H 0.0241355699 -2.1665762375 -0.0436861451
H 2.0729596868 1.9903122615 -0.6973797456
H 3.4169984059 1.0525517012 -0.0244467127
H 2.1491617561 1.6893283450 1.0611963440
H 2.1308162287 -1.6885471356 1.0624167000
H 2.0694751809 -1.9866148841 -0.6971613288
H 3.4111293615 -1.0548881533 -0.0100610412
H -2.4234416179 2.1526906363 0.0459240509
H -2.4202015521 -2.1558579329 0.0397483610
H -3.6897727840 -0.0024315788 0.0803368958
20
step=6 E=-365.858818938069 Eh
N 1.6267925166 -0.0009199551 -0.1306005094
C 0.2422243759 0.0009224758 -0.0613963343
C -0.4920787269 1.2047589153 -0.0248872783
C -0.4905446158 -1.2039553732 -0.0278742513
C 2.3366881080 1.2395448615 0.0669842811
C 2.3393981957 -1.2401467407 0.0697924035
C -1.8823937612 1.1910309325 0.0198009656
C -1.8809114759 -1.1896239009 0.0168873486
C -2.6040037072 0.0002550824 0.0398530258
H 0.0229234892 2.1657131250 -0.0342148581
H 0.0249332607 -2.1644852741 -0.0402494641
H 2.0634198405 1.9843883004 -0.6979207005
H 3.4151205918 1.0586422812 -0.0274031174
H 2.1493233509 1.6925837149 1.0603762591
H 2.1461737446 -1.6948014280 1.0612493710
H 2.0734270978 -1.9850444781 -0.6976819235
H 3.4181402792 -1.0567328522 -0.0164454987
H -2.4145103983 2.1460497877 0.0434757270
H -2.4126446166 -2.1448919215 0.0380670295
H -3.6957679614 -0.0004464682 0.0773327961
20
step=7 E=-365.858909974970 Eh
N 1.6273538475 -0.0009861893 -0.1264075330
C 0.2426589256 0.0001162875 -0.0590222769
C -0.4897514714 1.2059798007 -0.0234056389
C -0.4902246385 -1.2054458343 -0.0263140791
C 2.3367926942 1.2405376014 0.0673012349
C 2.3403941498 -1.2404937013 0.0699926166
C -1.8804715215 1.1962556874 0.0200018048
C -1.8809490894 -1.1960913510 0.0171552797
C -2.5944001198 0.0001861308 0.0393892825
H 0.0276590297 2.1659653064 -0.0328589863
H 0.0269639152 -2.1654807363 -0.0386434238
H 2.0609419367 1.9845465280 -0.6979256445
H 3.4154749968 1.0609317168 -0.0296211429
H 2.1516687783 1.6955801730 1.0605002218
H 2.1499217779 -1.6973851200 1.0612540463
H 2.0727388163 -1.9846929270 -0.6980457515
H 3.4191503885 -1.0570601337 -0.0188024182
H -2.4141980203 2.1509793919 0.0431803794
H -2.4148040605 -2.1508097796 0.0379208670
H -3.6863530017 0.0002938649 0.0760298357
20
step=8 E=-365.858921511361 Eh
N 1.6286227743 0.0019293825 -0.1175671025
C 0.2437788056 -0.0024418073 -0.0544787747
C -0.4870862921 1.2047524655 -0.0195941122
C -0.4882857071 -1.2091722958 -0.0235184692
C 2.3445048840 1.2411193350 0.0669677027
C 2.3425138242 -1.2377021943 0.0708214955
C -1.8781536610 1.1961869415 0.0208644919
C -1.8792871941 -1.1976429716 0.0170217094
C -2.5917946698 -0.0003876275 0.0379454529
H 0.0314763338 2.1643920964 -0.0271803013
H 0.0285922666 -2.1696706016 -0.0347197023
H 2.0682938919 1.9835909177 -0.6999533878
H 3.4221864946 1.0564307055 -0.0345235789
H 2.1665582623 1.7013569366 1.0592334642
H 2.1573540868 -1.6983706536 1.0614835293
H 2.0719291722 -1.9797424406 -0.6986073736
H 3.4208183062 -1.0526003289 -0.0225516833
H -2.4117540743 2.1513478496 0.0434238891
H -2.4144173576 -2.1520088563 0.0363999534
H -3.6840705076 0.0001307460 0.0721667557
20
step=9 E=-365.858950850539 Eh
N 1.6352703424 0.0001719223 -0.1042904432
C 0.2507241350 -0.0012480907 -0.0471421286
C -0.4815205956 1.2053393084 -0.0143679549
C -0.4823695694 -1.2074562208 -0.0177342545
C 2.3502370003 1.2411287173 0.0674433342
C 2.3500865909 -1.2403771531 0.0705009616
C -1.8726852859 1.1972917908 0.0216979392
C -1.8735427969 -1.1972970356 0.0183873330
C -2.5857242724 0.0002201721 0.0364789824
H 0.0369726151 2.1649990653 -0.0199030241
H 0.0345999119 -2.1678930197 -0.0262940470
H 2.0693671468 1.9785138102 -0.7029299714
H 3.4276026248 1.0568594884 -0.0382056509
H 2.1771678491 1.7081282043 1.0573804104
H 2.1720082940 -1.7077103232 1.0593066995
H 2.0742298148 -1.9777275286 -0.7017663154
H 3.4278009783 -1.0548067469 -0.0290345751
H -2.4065277913 2.1524286906 0.0425755206
H -2.4084217209 -2.1519052160 0.0365005274
H -3.6781074925 0.0005662308 0.0671796465
20
step=10 E=-365.858970296132 Eh
N 1.6439949901 -0.0009881963 -0.0870139507
C 0.2605019349 0.0006868006 -0.0362467157
C -0.4713357617 1.2075442811 -0.0066838222
C -0.4730961287 -1.2051350576 -0.0092742971
C 2.3591319010 1.2415204970 0.0676931518
C 2.3585679879 -1.2435922539 0.0696426674
C -1.8623456990 1.1962373980 0.0234830555
C -1.8641674039 -1.1970232598 0.0209678714
C -2.5766851489 0.0000585411 0.0354913883
H 0.0463147654 2.1675555569 -0.0092017356
H 0.0446351628 -2.1650988881 -0.0141229071
H 2.0735753279 1.9710657118 -0.7084533245
H 3.4359419211 1.0567837741 -0.0412424427
H 2.1911932922 1.7181458700 1.0536396783
H 2.1872658029 -1.7202047869 1.0549684596
H 2.0755460843 -1.9730562187 -0.7075691380
H 3.4357558456 -1.0589341047 -0.0356060114
H -2.3967263775 2.1508670452 0.0420613877
H -2.3982055540 -2.1519248288 0.0373848430
H -3.6690076178 0.0007093256 0.0615098115
20
step=11 E=-365.858971446085 Eh
N 1.6581968954 -0.0037280312 -0.0623199763
C 0.2757303612 -0.0008412988 -0.0203202722
C -0.4585671036 1.2048924108 0.0046754805
C -0.4573565094 -1.2069514121 0.0034962701
C 2.3722817045 1.2415367495 0.0680802124
C 2.3755153549 -1.2472934088 0.0678243241
C -1.8495802471 1.1996571779 0.0270018777
C -1.8483571033 -1.1927765452 0.0258479120
C -2.5629790336 0.0031592560 0.0353118241
H 0.0601240972 2.1641652297 0.0062915691
H 0.0590224591 -2.1676017222 0.0041567865
H 2.0812595192 1.9586547574 -0.7177586157
H 3.4487746003 1.0565563817 -0.0426356017
H 2.2088830797 1.7327677906 1.0472616765
H 2.2127524548 -1.7393571556 1.0466951834
H 2.0866993741 -1.9649077176 -0.7183999227
H 3.4516655747 -1.0599210774 -0.0422399560
H -2.3825439533 2.1550744168 0.0423111836
H -2.3836277171 -2.1468248764 0.0402105451
H -3.6553006509 0.0028817938 0.0548865782
20
step=12 E=-365.858990554633 Eh
N 1.6599062866 -0.0021415773 -0.0615561545
C 0.2770398632 -0.0001815876 -0.0195132109
C -0.4561289096 1.2061592854 0.0054569011
C -0.4577709357 -1.2055786510 0.0045283612
C 2.3773968087 1.2415215731 0.0678452332
C 2.3768985505 -1.2462037380 0.0674145383
C -1.8472905285 1.1973513604 0.0283470451
C -1.8489418958 -1.1951168675 0.0274058657
C -2.5623489437 0.0016002269 0.0369256240
H 0.0619796586 2.1658679341 0.0068465671
H 0.0590662069 -2.1659388647 0.0051469653
H 2.0907401968 1.9579752601 -0.7203399764
H 3.4536796996 1.0528772441 -0.0393246966
H 2.2127244885 1.7352176751 1.0455965710
H 2.2113619318 -1.7405293514 1.0447054131
H 2.0906480408 -1.9621220421 -0.7214065933
H 3.4533507705 -1.0580143280 -0.0388809630
H -2.3808442989 2.1525234361 0.0437023850
H -2.3837215674 -2.1496171597 0.0419775973
H -3.6547809103 0.0023596256 0.0567117292
20
step=13 E=-365.858999996292 Eh
N 1.6627916156 -0.0013164511 -0.0592281151
C 0.2801224690 0.0000062928 -0.0170325643
C -0.4516667751 1.2072122361 0.0076203317
C -0.4537418343 -1.2059967333 0.0067638837
C 2.3818105120 1.2420669552 0.0672852421
C 2.3783640380 -1.2466957458 0.0667241942
C -1.8428191557 1.1970617095 0.0312339335
C -1.8448622945 -1.1959034426 0.0303701532
C -2.5576897516 0.0011711501 0.0403198247
H 0.0665876244 2.1669736476 0.0081257508
H 0.0637902483 -2.1661582074 0.0065283810
H 2.1004793669 1.9554739654 -0.7257739067
H 3.4582982695 1.0511015801 -0.0330478364
H 2.2127982493 1.7406854541 1.0417452354
H 2.2077333240 -1.7454178117 1.0408509002
H 2.0951574197 -1.9588645922 -0.7268083055
H 3.4554057518 -1.0586778998 -0.0332503652
H -2.3767628429 2.1520253944 0.0464949846
H -2.3796575946 -2.1504198392 0.0449123791
H -3.6501474242 0.0020379003 0.0604515304
20
step=14 E=-365.859019320510 Eh
N 1.6742710277 -0.0013780559 -0.0490848427
C 0.2918306553 -0.0005417288 -0.0080037295
C -0.4385547602 1.2075486684 0.0149097450
C -0.4421459618 -1.2065900681 0.0149294446
C 2.3946103717 1.2424934066 0.0660222504
C 2.3893292389 -1.2483523065 0.0640352384
C -1.8297339659 1.1972464709 0.0393171032
C -1.8332537206 -1.1960212001 0.0393334117
C -2.5451849187 0.0016571386 0.0496393208
H 0.0803621998 2.1670460367 0.0133141573
H 0.0754309970 -2.1668139586 0.0134022763
H 2.1250904878 1.9447104309 -0.7415073974
H 3.4718950058 1.0477383565 -0.0161435163
H 2.2135940504 1.7559953747 1.0303087692
H 2.2075051889 -1.7619860156 1.0281181534
H 2.1154900478 -1.9485787724 -0.7437734332
H 3.4672876561 -1.0579954168 -0.0194822501
H -2.3634489605 2.1523699871 0.0536492668
H -2.3686240855 -2.1502473139 0.0537239086
H -3.6376654172 0.0031567280 0.0700375797
20
step=15 E=-365.859044149892 Eh
N 1.6902938608 -0.0030289151 -0.0337547551
C 0.3084187022 -0.0012960174 0.0047670821
C -0.4210693695 1.2074332578 0.0253734910
C -0.4261479812 -1.2070557871 0.0262715359
C 2.4101613029 1.2425309875 0.0630267495
C 2.4048803539 -1.2517696977 0.0593783862
C -1.8122159042 1.1987018601 0.0507789976
C -1.8171919610 -1.1947576485 0.0516174188
C -2.5282805175 0.0034682174 0.0625884008
H 0.0989314821 2.1663631616 0.0208670243
H 0.0907595455 -2.1676619046 0.0227183671
H 2.1552511580 1.9274782711 -0.7645242564
H 3.4884354164 1.0450424059 0.0052997447
H 2.2129422417 1.7774008672 1.0120412155
H 2.2092021379 -1.7866725161 1.0087339547
H 2.1432936809 -1.9346406719 -0.7677630394
H 3.4837578897 -1.0589434503 -0.0026515833
H -2.3451923145 2.1542651590 0.0639113658
H -2.3535070480 -2.1484595572 0.0655413728
H -3.6207436482 0.0056561241 0.0834516085
20
step=16 E=-365.859069381501 Eh
N 1.7115718033 -0.0061933281 -0.0096660079
C 0.3305368175 -0.0022624776 0.0236214705
C -0.3980862983 1.2071706479 0.0404971307
C -0.4056465306 -1.2071243861 0.0424376258
C 2.4298775648 1.2416791823 0.0560265026
C 2.4260899964 -1.2565260796 0.0502560951
C -1.7891431698 1.2010550736 0.0660223790
C -1.7966197058 -1.1924700780 0.0678406063
C -2.5064104063 0.0065453129 0.0791773517
H 0.1234257345 2.1652252678 0.0326281280
H 0.1098970393 -2.1684090850 0.0366826042
H 2.1913718997 1.9000411732 -0.7984417278
H 3.5089878232 1.0426968722 0.0283584896
H 2.2137769535 1.8069762270 0.9824244630
H 2.2152653802 -1.8219271208 0.9778990395
H 2.1786387135 -1.9131906621 -0.8028540204
H 3.5056658234 -1.0613731420 0.0141692187
H -2.3208437554 2.1573462645 0.0771393320
H -2.3342785982 -2.1454050457 0.0806000990
H -3.5988246361 0.0099362411 0.0998406724
20
step=17 E=-365.859074860011 Eh
N 1.7118803633 -0.0058344757 -0.0065969163
C 0.3308071935 -0.0018150337 0.0260422491
C -0.3986965450 1.2071062576 0.0422692975
C -0.4052578909 -1.2066802724 0.0441731747
C 2.4321826875 1.2410546813 0.0517937686
C 2.4264056544 -1.2564138596 0.0460063711
C -1.7896920050 1.2013700630 0.0683521364
C -1.7962194512 -1.1920491479 0.0701240066
C -2.5065087645 0.0066311720 0.0820687412
H 0.1225715962 2.1652227081 0.0331733934
H 0.1102384417 -2.1679249762 0.0372670789
H 2.1964423950 1.8950000452 -0.8069570567
H 3.5110104431 1.0399903810 0.0278386367
H 2.2152944213 1.8120217323 0.9743159513
H 2.2134820320 -1.8273241611 0.9695983604
H 2.1811167979 -1.9081520645 -0.8116000118
H 3.5060850821 -1.0610229223 0.0139805278
H -2.3214701350 2.1576059510 0.0792044862
H -2.3336439393 -2.1450924125 0.0825748754
H -3.5988848589 0.0096438279 0.1032104514
20
step=18 E=-365.859087820964 Eh
N 1.7128375299 -0.0068740882 0.0087428988
C 0.3319738310 -0.0019719346 0.0361605720
C -0.3976092647 1.2070525341 0.0498884537
C -0.4048627525 -1.2063916355 0.0512272206
C 2.4341489993 1.2401385824 0.0362344929
C 2.4279755452 -1.2576930630 0.0306693576
C -1.7886310919 1.2024841836 0.0750665562
C -1.7959488442 -1.1908744872 0.0763559715
C -2.5060040614 0.0079857019 0.0887260088
H 0.1242169247 2.1648544173 0.0392530981
H 0.1101452610 -2.1678989454 0.0424313122
H 2.1996511779 1.8759863192 -0.8368412597
H 3.5129261091 1.0378774921 0.0189744517
H 2.2172002125 1.8313544759 0.9454290057
H 2.2143200591 -1.8488888172 0.9407648615
H 2.1844348873 -1.8912433840 -0.8414491329
H 3.5076591427 -1.0610915700 0.0056880936
H -2.3198891006 2.1590543285 0.0845939021
H -2.3337903546 -2.1437249765 0.0870434507
H -3.5984147765 0.0114526882 0.1092243792
20
step=19 E=-365.859090436555 Eh
N 1.6955990321 -0.0058274733 0.0154973385
C 0.3145291966 -0.0012576571 0.0390651299
C -0.4153945541 1.2075498106 0.0522739019
C -0.4217997512 -1.2059185442 0.0514723820
C 2.4196484490 1.2398765328 0.0117648223
C 2.4101636003 -1.2570822699 0.0085003005
C -1.8064027389 1.2024580080 0.0776242130
C -1.8129355182 -1.1908366733 0.0768710586
C -2.5234312745 0.0077118890 0.0908677213
H 0.1060941126 2.1655125281 0.0412756770
H 0.0936555080 -2.1671815848 0.0403209403
H 2.1796945715 1.8606650980 -0.8709521675
H 3.4979061821 1.0351612851 -0.0091346975
H 2.2110850074 1.8476769200 0.9115827538
H 2.1998319022 -1.8643356807 0.9083207907
H 2.1630748990 -1.8750236928 -0.8741726075
H 3.4898320287 -1.0604157706 -0.0159773839
H -2.3379979832 2.1588355112 0.0872395111
H -2.3504257696 -2.1438904634 0.0858886348
H -3.6158434091 0.0108696943 0.1117379835
20
step=20 E=-365.859091147797 Eh
N 1.6795840661 -0.0056167643 0.0149819495
C 0.2983999927 -0.0012081560 0.0381724500
C -0.4308230916 1.2079552239 0.0521666560
C -0.4377284174 -1.2060380805 0.0497671421
C 2.4032329044 1.2404605164 -0.0033177610
C 2.3932491206 -1.2574014503 -0.0048725689
C -1.8218357087 1.2022690401 0.0784549602
C -1.8287995267 -1.1911230352 0.0761210781
C -2.5389765756 0.0075967302 0.0914142010
H 0.0906773066 2.1659492575 0.0417431989
H 0.0779040657 -2.1672297298 0.0375527086
H 2.1606155185 1.8527874215 -0.8913783854
H 3.4814683100 1.0358504759 -0.0247355060
H 2.1967614197 1.8564456480 0.8912663972
H 2.1825355713 -1.8725258301 0.8893096788
H 2.1453205040 -1.8670159305 -0.8933352415
H 3.4730061090 -1.0611607637 -0.0270825464
H -2.3535462455 2.1585651773 0.0889511650
H -2.3663720291 -2.1441361966 0.0846965222
H -3.6313800398 0.0108868346 0.1129153286
20
step=21 E=-365.859087838406 Eh
N 1.6384179211 -0.0040210500 0.0007093136
C 0.2569839442 -0.0008512870 0.0278509385
C -0.4713443721 1.2086437510 0.0452373579
C -0.4783040308 -1.2063116357 0.0402104314
C 2.3630477583 1.2419583203 -0.0237040444
C 2.3511800769 -1.2566737460 -0.0223090492
C -1.8623763773 1.2010246250 0.0744677945
C -1.8692124966 -1.1925936736 0.0695186728
C -2.5792269113 0.0062238017 0.0872090123
H 0.0496626339 2.1669991206 0.0366446022
H 0.0379859751 -2.1671903731 0.0270380233
H 2.1157151514 1.8522194898 -0.9118802648
H 3.4408624954 1.0359745574 -0.0510260776
H 2.1621386313 1.8596397312 0.8709763741
H 2.1408124458 -1.8730053307 0.8710419143
H 2.1014779846 -1.8640028146 -0.9119632588
H 3.4309652906 -1.0607347684 -0.0448326460
H -2.3947204145 2.1569280764 0.0876744684
H -2.4064888408 -2.1457907065 0.0786400643
H -3.6716128607 0.0092493054 0.1106028439
20
step=22 E=-365.859090316063 Eh
N 1.6382549533 -0.0052438212 0.0007719022
C 0.2570979774 -0.0014738587 0.0278993572
C -0.4707688562 1.2083210915 0.0452596630
C -0.4787912035 -1.2065793715 0.0402712283
C 2.3604878984 1.2419612299 -0.0235463552
C 2.3517998749 -1.2573533582 -0.0222477097
C -1.8617840667 1.2015026051 0.0744591331
C -1.8696808485 -1.1921383779 0.0695467605
C -2.5791479032 0.0070155013 0.0871952219
H 0.0507458796 2.1664002548 0.0366791759
H 0.0370116110 -2.1677050043 0.0271519049
H 2.1120531586 1.8518033286 -0.9117198332
H 3.4386797001 1.0380061759 -0.0507794643
H 2.1583599832 1.8592440188 0.8711230125
H 2.1417810790 -1.8738744710 0.8710551468
H 2.1025371263 -1.8648166673 -0.9119247906
H 3.4314693534 -1.0607843911 -0.0446946586
H -2.3936482335 2.1576730300 0.0876424893
H -2.4074260143 -2.1450678769 0.0786787198
H -3.6715224968 0.0105257202 0.1105526700
20
step=23 E=-365.859089780663 Eh
N 1.6012799224 -0.0054421207 -0.0129559416
C 0.2204829815 -0.0016809349 0.0182078461
C -0.5070174083 1.2082680201 0.0383106574
C -0.5154669497 -1.2068131851 0.0319250510
C 2.3220244072 1.2426109035 -0.0386368770
C 2.3147959173 -1.2575729437 -0.0360051856
C -1.8979772990 1.2014185613 0.0711422615
C -1.9062268960 -1.1922803565 0.0648287175
C -2.6154435923 0.0070338596 0.0848761991
H 0.0146625849 2.1662877856 0.0296606256
H 0.0002793917 -2.1679636010 0.0173361822
H 2.0711953238 1.8517420050 -0.9266374844
H 3.4003922219 1.0399581660 -0.0676227471
H 2.1205967393 1.8599201645 0.8561714552
H 2.1030528043 -1.8748070270 0.8563658022
H 2.0668817528 -1.8641348993 -0.9267072342
H 3.3945011646 -1.0610898462 -0.0561503676
H -2.4297091498 2.1576296978 0.0864567768
H -2.4441152439 -2.1451274497 0.0749304341
H -3.7077545936 0.0106133722 0.1107984256
20
step=24 E=-365.859090948908 Eh
N 1.5843926685 -0.0057649381 -0.0184307116
C 0.2038464165 -0.0016480184 0.0143574446
C -0.5242057771 1.2080598668 0.0352580208
C -0.5324008924 -1.2066153867 0.0288200106
C 2.3049035457 1.2421788629 -0.0432932011
C 2.2981215422 -1.2576209388 -0.0408028613
C -1.9150896438 1.2017634455 0.0697802900
C -1.9231300338 -1.1918194103 0.0634093789
C -2.6325149260 0.0073679050 0.0844162494
H -0.0024821982 2.1660182612 0.0257280838
H -0.0168967278 -2.1678504954 0.0133573585
H 2.0542882397 1.8519688708 -0.9309135834
H 3.3833425298 1.0398374997 -0.0719633168
H 2.1031402617 1.8590718458 0.8517336229
H 2.0854122360 -1.8749899779 0.8512424667
H 2.0515272929 -1.8644087233 -0.9317021307
H 3.3778691798 -1.0611852662 -0.0596262476
H -2.4466381270 2.1580668262 0.0856701438
H -2.4610044983 -2.1446596750 0.0740206524
H -3.7247790200 0.0108805097 0.1116513593
20
step=25 E=-365.859091553043 Eh
N 1.5806684279 -0.0057951173 -0.0184889701
C 0.2000817328 -0.0014779669 0.0143107369
C -0.5284492969 1.2080014170 0.0351030748
C -0.5362476036 -1.2063530473 0.0288040807
C 2.3018061234 1.2416487331 -0.0430752742
C 2.2944538328 -1.2575171518 -0.0407959771
C -1.9192953356 1.2019687302 0.0697010736
C -1.9270043389 -1.1915290228 0.0634685608
C -2.6366136853 0.0074947541 0.0844969582
H -0.0068164750 2.1659655868 0.0252593926
H -0.0208166155 -2.1675994051 0.0131930955
H 2.0519819356 1.8518346036 -0.9306470215
H 3.3801798333 1.0388028234 -0.0712605364
H 2.1000323641 1.8586000130 0.8519021278
H 2.0816363391 -1.8749516182 0.8511775225
H 2.0482288057 -1.8644769045 -0.9316720500
H 3.3742304148 -1.0611130543 -0.0594270365
H -2.4508245723 2.1582874439 0.0854945241
H -2.4647650204 -2.1444257989 0.0740901302
H -3.7288730111 0.0109049796 0.1118247087
