76
0 1 Before single point calculation
C -5.120593542 1.869948079 -1.330690735
N -5.167860756 0.806741136 -0.328263950
C -5.845318471 1.201770102 0.912723145
C -4.273886588 -0.281997293 -0.383710139
C -3.053789029 -0.136040430 -1.028687508
C -2.097042894 -1.130043022 -1.006250141
C -2.294146739 -2.327132504 -0.338580833
C -1.184315207 -3.302902404 -0.301957397
C -1.339386073 -4.671384176 -0.533175653
C -0.250147950 -5.516612972 -0.508582493
C 1.027871532 -5.036381989 -0.278474652
F 2.085313649 -5.884717993 -0.258353182
C 1.208502303 -3.665024397 -0.071134102
C 2.520726672 -3.029420380 0.097289091
C 3.730265931 -3.659617945 0.123374902
S 4.974380642 -2.485404572 0.253349940
C 3.790920081 -1.203277782 0.254198325
C 4.078963391 0.210363779 0.306135563
C 3.008038830 1.089368468 0.277417889
C 3.180170198 2.466389890 0.243965863
C 2.000373111 3.356464529 0.205710900
C 1.939876920 4.447497628 1.054936656
C 0.811102242 5.239379538 1.144047286
C -0.329500595 4.974981190 0.395318737
N -1.509037781 5.714894448 0.619899670
C -2.822124871 5.070273118 0.751128314
C -1.457724181 7.063573254 1.180757713
C -0.275707587 3.911314689 -0.570462973
C -1.321602138 3.695793935 -1.488383829
C -1.256910181 2.701148639 -2.420360865
C -0.131107778 1.883593528 -2.491849619
C 0.916721146 2.085154302 -1.642669819
C 0.883725351 3.098088574 -0.658686721
C 4.488493399 2.954802970 0.281123658
C 5.563870093 2.092678571 0.330802624
C 5.384621467 0.720940905 0.339862330
F 6.458217712 -0.109490550 0.389349303
N 2.571905780 -1.653909288 0.182638982
C 0.104091306 -2.833423765 -0.082196293
C -3.543482943 -2.536075484 0.330977679
C -3.808783375 -3.708268440 1.071035712
C -5.027424225 -3.922918651 1.643752194
C -6.043184609 -2.979163544 1.502960759
C -5.809197237 -1.814870830 0.830353169
C -4.549455140 -1.534897582 0.267514167
H -6.068115452 2.404670145 -1.357404677
H -4.940301273 1.448038316 -2.317510857
H -4.327524160 2.576824223 -1.095139665
H -6.924017865 1.111016859 0.800853110
H -5.515112105 0.582470161 1.744318730
H -5.609111592 2.236565228 1.153977282
H -2.825184137 0.800647208 -1.503534813
H -1.160280393 -0.968410531 -1.511284540
H -2.316357955 -5.058347433 -0.764837540
H -0.372186607 -6.571003772 -0.682513930
H 3.867739587 -4.720091193 0.057808491
H 2.013602339 0.681196823 0.282406826
H 2.780502309 4.648393761 1.696614478
H 0.789503561 6.045070029 1.856015477
H -3.495718888 5.418087166 -0.029668729
H -3.260808740 5.311380776 1.717525808
H -2.726311375 3.987924508 0.689343657
H -2.369745718 7.606369798 0.939756160
H -1.352925165 7.019138712 2.262990882
H -0.615418265 7.611709634 0.763166728
H -2.164936935 4.361384001 -1.483161074
H -2.065098122 2.561973765 -3.119825911
H -0.081007087 1.106273912 -3.236709833
H 1.801039413 1.482993652 -1.746707047
H 4.650032401 4.018371566 0.258757811
H 6.569424683 2.473467028 0.357299499
H 0.259616794 -1.781559684 0.073937669
H -3.027876869 -4.435407423 1.199915719
H -5.211687685 -4.828379195 2.198490445
H -7.013659589 -3.170331294 1.930723221
H -6.608811589 -1.109481296 0.697171038
