55
0 1 Before single point calculation
C -4.024860520 3.982289192 1.383821373
N -4.831687764 3.338189935 0.347977022
C -5.621485417 4.215705033 -0.515360113
C -4.826947971 1.945412944 0.172870935
C -4.014805872 1.119320074 0.959352592
C -4.006297259 -0.240401225 0.782888253
C -4.799609887 -0.848798654 -0.196873672
C -4.822344438 -2.294639795 -0.386566593
C -3.784686235 -3.149603787 -0.244907280
C -2.378797097 -2.805234062 -0.082163947
C -1.502891746 -3.683950510 0.548331873
C -0.185562209 -3.341017813 0.646803239
C 0.261903405 -2.132400825 0.111855281
C 1.655056891 -1.782908143 0.231792894
C 2.143139543 -0.625960101 -0.248280319
C 3.518963148 -0.185314010 -0.178804271
C 3.865894288 1.076032630 -0.675448147
C 5.160259527 1.526571783 -0.626064377
C 6.180021885 0.738442418 -0.079047150
N 7.505663848 1.197835626 -0.029216032
C 8.584059435 0.366672505 0.505112779
C 7.870222605 2.535788079 -0.494469127
C 5.832294640 -0.524588596 0.415255627
C 4.537265013 -0.974493293 0.367970623
N -0.562294250 -1.279436685 -0.519206053
C -1.826618369 -1.635749000 -0.600683943
C -5.628325615 -0.025782213 -0.967342853
C -5.637273790 1.334325820 -0.791955275
H -2.966589872 3.819953579 1.186875613
H -4.206086667 5.054870812 1.414468530
H -4.273133632 3.570906819 2.360611323
H -5.362767553 4.044384154 -1.558783647
H -5.433884118 5.263602843 -0.289700748
H -6.683195845 4.020943832 -0.374606213
H -3.384757435 1.560367909 1.710901353
H -3.385321395 -0.859508354 1.407091497
H -5.784150826 -2.712491691 -0.640755487
H -3.996015008 -4.206024846 -0.296063094
H -1.868936356 -4.612340657 0.952476058
H 0.515062236 -3.996512101 1.135008398
H 2.306326774 -2.477952722 0.727839581
H 1.445083642 0.037488882 -0.726811709
H 3.096336133 1.697503693 -1.100864180
H 5.398638474 2.499830608 -1.016431017
H 9.544559756 0.873483600 0.435155550
H 8.395425092 0.138106850 1.552750404
H 8.651238117 -0.563683019 -0.056459634
H 7.295156413 3.287623741 0.043521403
H 8.926882873 2.736645858 -0.328834061
H 7.669033262 2.628286698 -1.560443230
H 6.595810468 -1.150983622 0.840939100
H 4.302721502 -1.950658408 0.753336466
H -2.475935585 -0.954563216 -1.123530854
H -6.258053339 -0.477889948 -1.714562050
H -6.280564324 1.943415615 -1.401538819
