64
0 1 Before single point calculation
C 11.724493753 -0.965563539 -0.128356175
N 10.484101435 -1.738665751 -0.086859889
C 10.608420048 -3.195309575 -0.113516639
C 9.226318439 -1.108962125 -0.041058042
C 8.043688806 -1.855764659 -0.031167019
C 6.818925892 -1.238052450 0.005414600
C 6.708742376 0.154066288 0.034426320
C 5.397828490 0.783262460 0.059812743
C 5.128687827 2.126021888 0.078611453
C 3.749910179 2.440468647 0.085596450
C 2.927455045 1.346613853 0.072531482
C 1.473972554 1.338653051 0.061166071
C 0.720765850 2.516282108 0.020433819
C -0.651391759 2.472597494 -0.007822118
C -1.354847930 1.263715558 0.003145033
C -2.808457343 1.267817835 -0.028726719
C -3.622523722 2.371608933 -0.101229292
C -5.010314141 2.086382903 -0.108969983
C -5.313866745 0.752369721 -0.043626160
C -6.636313688 0.149808354 -0.031665803
C -6.775142868 -1.238618051 0.033114091
C -8.012694440 -1.831314508 0.043426751
C -9.179407012 -1.061606720 -0.012058541
N -10.450970328 -1.665725209 -0.005926261
C -11.671489028 -0.881930203 -0.190583083
C -10.612542133 -3.106552020 0.183949118
C -9.040771118 0.328978332 -0.075899569
C -7.801858975 0.920136829 -0.084828890
S -3.822408259 -0.152741406 0.022544368
C -0.600268669 0.057496988 0.051001332
N -1.196044199 -1.191175466 0.067608718
C 0.789874993 0.131007492 0.077884589
S 3.895483420 -0.105367085 0.064396918
C 7.890128016 0.901630091 0.028923541
C 9.116380695 0.285362321 -0.007521048
H 11.824799505 -0.372296971 0.778867290
H 11.721719118 -0.301020617 -0.990588627
H 12.592709432 -1.616931515 -0.206758863
H 10.126151237 -3.594535884 -1.003840439
H 10.139868978 -3.626245357 0.769284628
H 11.652241192 -3.501881072 -0.126012253
H 8.096602691 -2.929483789 -0.055890560
H 5.917879885 -1.825899224 0.009357927
H 5.896802647 2.883039427 0.081087770
H 3.383910611 3.454958289 0.095744295
H 1.225703858 3.465830238 0.006661183
H -1.199363366 3.397112335 -0.038705663
H -3.246801826 3.381311346 -0.149832814
H -5.760589133 2.859496407 -0.162400020
H -5.886044247 -1.843941169 0.072286673
H -8.088546760 -2.903242842 0.085166004
H -11.836834702 -0.238998295 0.672090437
H -11.588476049 -0.265696025 -1.084137261
H -12.538797323 -1.528472595 -0.308706725
H -11.661268599 -3.371189830 0.303889782
H -10.081056595 -3.427875313 1.078073234
H -10.218829516 -3.643346358 -0.677509379
H -9.921988926 0.944325881 -0.110394220
H -7.723720028 1.991424557 -0.134174834
H -0.695031268 -2.030316390 0.328879670
H -2.194428667 -1.282361836 0.202579247
H 1.353136618 -0.782713198 0.104395807
H 7.834983521 1.975449712 0.051895863
H 10.009900162 0.883701128 -0.010183471
