20
0 1 Before single point calculation
N 1.580667967 -0.005794999 -0.018489003
C 0.200082002 -0.001478003 0.014311001
C -0.528449014 1.208001047 0.035103002
C -0.536247031 -1.206352945 0.028803999
C 2.301804996 1.241648045 -0.043075001
C 2.294453069 -1.257517038 -0.040795999
C -1.919295008 1.201967930 0.069701002
C -1.927003983 -1.191529108 0.063469001
C -2.636612876 0.007495002 0.084496995
H -0.006815998 2.165965185 0.025259000
H -0.020817000 -2.167598021 0.013193002
H 2.051981055 1.851834094 -0.930647061
H 3.380178125 1.038802021 -0.071261001
H 2.100032137 1.858598971 0.851902014
H 2.081635036 -1.874951052 0.851177003
H 2.048228005 -1.864476021 -0.931671968
H 3.374228909 -1.061113034 -0.059427000
H -2.450824073 2.158286994 0.085494004
H -2.464764119 -2.144424919 0.074090006
H -3.728872052 0.010904998 0.111825002
