65
0 1 Before single point calculation
C -2.032234486 4.058738780 -1.854927298
N -1.304764571 2.788040708 -1.752204968
C -0.108026737 2.727931342 -2.590531871
C -1.896900726 1.614524653 -1.248151255
C -1.695325822 0.403815586 -1.903365708
C -2.319785876 -0.755057050 -1.497344241
C -3.180738196 -0.787372307 -0.406453836
C -3.793371480 -2.045032733 0.006403568
C -3.177933029 -3.255434334 -0.019891403
C -1.750982423 -3.466111588 -0.260970868
C -1.267108532 -4.473551850 -1.164317568
C 0.066086004 -4.442418702 -1.351847457
S 0.798030468 -3.187012163 -0.418120030
C -0.723304934 -2.700423439 0.294810805
C -0.936396368 -1.692077055 1.284664360
C -0.105490751 -0.681648938 1.658070106
C 1.269979936 -0.458836281 1.238150481
C 2.210733562 -1.479100684 1.303263704
C 3.525166209 -1.280362236 0.945092779
C 3.988857629 -0.045356408 0.496362180
N 5.309349509 0.077695948 0.027998873
C 5.647836885 0.815723817 -1.195142619
C 6.352496424 -0.854518691 0.453436137
C 3.071230677 1.063287373 0.497308612
C 3.489611459 2.378176614 0.218306161
C 2.604009646 3.418344505 0.203255605
C 1.256640565 3.194663859 0.475790835
C 0.821190828 1.940035763 0.790256265
C 1.712078353 0.849257960 0.841287128
C -3.390329921 0.429266452 0.328253478
C -4.175195253 0.454072170 1.499838915
C -4.281088630 1.585506294 2.255722729
C -3.594754908 2.740420230 1.886700736
C -2.829888350 2.753045125 0.755619812
C -2.724796377 1.618351636 -0.070867979
H -3.070353321 3.932605904 -1.552949998
H -2.025797135 4.409841210 -2.885405538
H -1.563496566 4.816943033 -1.230165455
H 0.574799162 1.967079250 -2.216033530
H 0.410817213 3.684872781 -2.576389960
H -0.377160058 2.491307107 -3.618305498
H -1.061162996 0.382223434 -2.771647750
H -2.144358808 -1.667587162 -2.040267707
H -4.826321180 -2.007293298 0.314459091
H -3.773713606 -4.138473470 0.150645826
H -1.926991872 -5.165429291 -1.665161879
H 0.619025342 -5.100587198 -1.995038069
H -1.926795558 -1.681669144 1.709384337
H -0.524352320 0.073719095 2.307249045
H 1.897288560 -2.443386102 1.666047814
H 4.207052339 -2.111649851 0.971840408
H 6.288233683 1.664475664 -0.961926056
H 6.177740810 0.165091670 -1.888776540
H 4.746493127 1.168367360 -1.693235004
H 6.245165767 -1.080653322 1.512877760
H 7.336758789 -0.415854851 0.298413088
H 6.288885708 -1.779469119 -0.116960812
H 4.533912034 2.570974929 0.054762481
H 2.946249946 4.416159082 -0.018135749
H 0.558909415 4.015304226 0.441261749
H -0.223883851 1.773360808 0.980000867
H -4.677850924 -0.443337269 1.814266749
H -4.880649131 1.582724215 3.151458170
H -3.660151374 3.621604226 2.504072046
H -2.260084025 3.631245303 0.514298334
