59
0 1 Before single point calculation
C 6.728945539 -4.868843051 0.478405997
N 5.386804133 -4.512987708 0.020764300
C 4.547636841 -5.600903253 -0.478457472
C 4.921581819 -3.184343759 0.064372079
C 3.603273110 -2.869667127 -0.278727078
C 3.152738247 -1.574307703 -0.233978131
C 3.991455128 -0.527098600 0.153046822
C 3.484401069 0.836077873 0.191481430
C 4.171987112 1.966220314 0.533121465
C 3.393501473 3.148279552 0.487194824
C 2.093526152 2.951214566 0.116422692
C 1.081102472 3.992694075 0.034212229
C 1.280882544 5.346702625 0.260997725
O 0.109002242 6.031547592 0.187663294
C -0.857759445 5.115870908 -0.082663595
C -0.313974520 3.845287143 -0.197496426
C -1.061458602 2.619627948 -0.474692689
C -0.768803369 1.703232498 -1.440775210
C -1.650884087 0.597098062 -1.473549647
C -2.642748565 0.646899882 -0.534031183
C -3.686066056 -0.342296192 -0.310205857
C -4.644832861 -0.138827177 0.684224736
C -5.636362369 -1.058552249 0.917702526
C -5.718673362 -2.234118119 0.165270857
N -6.734724432 -3.180074312 0.401989653
C -7.781606355 -2.944399853 1.394813432
C -6.800566767 -4.434127094 -0.346478773
C -4.757896486 -2.438870127 -0.830145311
C -3.767066441 -1.517178243 -1.062668404
S -2.482098274 2.115793006 0.399184990
S 1.840574185 1.256480840 -0.217145973
C 5.309450946 -0.840136750 0.495957125
C 5.761863407 -2.135970809 0.452839815
H 7.476119884 -4.434015058 -0.182820929
H 6.889135073 -4.499651996 1.489648387
H 6.866748235 -5.948158134 0.489167645
H 5.111593387 -6.528074134 -0.554903213
H 4.167443886 -5.356197349 -1.468343546
H 3.708919960 -5.763904263 0.195539155
H 2.932064130 -3.655920786 -0.574106575
H 2.134733124 -1.347578137 -0.498316139
H 5.211444942 1.963658520 0.820431185
H 3.787940805 4.118937220 0.744617156
H 2.232194092 5.811609020 0.482117696
H -1.907547217 5.352436098 -0.194339177
H 0.064799966 1.818161862 -2.116776215
H -1.539836842 -0.213283931 -2.176264594
H -4.593222014 0.760264286 1.272856262
H -6.358409557 -0.876008743 1.693162080
H -8.517173458 -3.746063388 1.389007413
H -7.345672647 -2.888275555 2.390517131
H -8.298031244 -2.011067670 1.178328267
H -5.866498660 -4.982225623 -0.239336734
H -6.975675140 -4.229961503 -1.400936757
H -7.606691773 -5.068129815 0.017354901
H -4.799661868 -3.333220774 -1.425458570
H -3.040269367 -1.700771889 -1.833822934
H 5.976828527 -0.052633545 0.797749813
H 6.782240445 -2.350024761 0.715744393
