61
0 1 Before single point calculation
C -11.312256987 0.214612961 -0.102328905
N -10.419826582 -0.933640657 0.049944099
C -11.047703708 -2.245270155 0.201175228
C -9.020965125 -0.783889314 0.042304764
C -8.173867562 -1.894407693 0.124018008
C -6.808726658 -1.750066839 0.112833759
C -6.219169077 -0.485912823 0.021071661
C -4.775769116 -0.306827203 0.006451221
C -3.823570749 -1.290907795 0.013834762
C -2.494535687 -0.807963744 -0.003976592
C -2.396501169 0.553620108 -0.022310492
C -1.145628268 1.293403226 -0.036819072
C -1.174438327 2.683135208 -0.023568531
C -0.000377298 3.389728615 -0.024770220
C 1.173945145 2.683764270 -0.039758594
C 1.145636469 1.294055628 -0.057214921
C 2.397067906 0.555168413 -0.075186615
C 2.497152363 -0.803841344 -0.158503220
C 3.826665846 -1.285893592 -0.157574104
C 4.776874832 -0.303857231 -0.069213624
C 6.220022966 -0.483154968 -0.037642181
C 7.059617708 0.615591301 0.157446408
C 8.423542375 0.472251856 0.199031531
C 9.020420089 -0.783151876 0.043788823
N 10.418456928 -0.934189541 0.089841208
C 11.056239573 -2.229310197 -0.143491112
C 11.300166278 0.195612094 0.377090446
C 8.179794321 -1.883301580 -0.157143374
C 6.815198453 -1.738080721 -0.195824715
S 3.992620394 1.254392671 0.007642531
N 0.000112958 0.598799091 -0.056573290
S -3.993572188 1.254197115 -0.024676000
C -7.064986815 0.622727358 -0.056740081
C -8.429638196 0.480554472 -0.047796140
H -12.353499305 -0.098494722 -0.145077031
H -11.194273909 0.893274832 0.740457473
H -11.082046006 0.746587674 -1.023639115
H -12.131414403 -2.159962727 0.248229143
H -10.706512349 -2.718750518 1.119985598
H -10.791875038 -2.881398769 -0.644085567
H -8.602016344 -2.878470463 0.192806611
H -6.181183114 -2.621025359 0.178484961
H -4.059265143 -2.343110125 0.028358449
H -1.625383733 -1.447467416 -0.000304690
H -2.122891466 3.190716135 -0.009334659
H -0.000547619 4.467438870 -0.013011028
H 2.122249787 3.191833963 -0.040064731
H 1.629240996 -1.442145495 -0.219202994
H 4.064122269 -2.336356224 -0.213027815
H 6.615136022 1.587790776 0.278928249
H 9.044400652 1.337295256 0.349100622
H 12.140638628 -2.138633410 -0.150669671
H 10.745608570 -2.630207192 -1.106571285
H 10.777101542 -2.929774223 0.641430726
H 11.232335571 0.933779061 -0.419739366
H 11.016118887 0.660864467 1.319213569
H 12.336684953 -0.124964826 0.458903401
H 8.612425517 -2.860319259 -0.278334072
H 6.192531465 -2.600543875 -0.354035782
H -6.624906292 1.602042830 -0.125714321
H -9.055182266 1.353185571 -0.107064589
