71
0 1 Before single point calculation
C -11.602385563 0.472375782 1.281932999
N -10.713861248 -0.300643287 0.416150583
C -11.413677034 -1.001873264 -0.667387927
C -9.329467461 -0.030137002 0.368273516
C -8.861456380 1.241124079 0.675108698
C -7.530383742 1.578423353 0.539490498
C -6.575948962 0.670255357 0.101018509
C -5.190368713 1.113868582 -0.021929850
C -4.803654759 2.406415268 -0.283073328
C -3.407347652 2.604928637 -0.338678296
C -2.672264269 1.469611259 -0.118500861
C -1.238905582 1.366968919 -0.119447593
C -0.351255879 2.396270791 -0.306277846
C 1.002817299 2.002007461 -0.261505006
C 1.187422668 0.662501404 -0.041166244
C 2.456612555 -0.002504501 0.043280454
C 2.649787853 -1.343145054 0.248739484
C 4.007295229 -1.737802525 0.281685001
C 4.907843891 -0.713918523 0.102583011
C 6.356393934 -0.821162819 0.083541219
C 6.955078845 -2.067318260 0.209596251
C 8.325826048 -2.227921113 0.219299606
C 9.191209054 -1.147021515 0.110994272
N 10.583367581 -1.343914538 0.235163363
C 11.421201555 -0.494452221 1.090604640
C 11.194228490 -2.631028278 -0.091502124
C 8.622205881 0.156627467 -0.091658538
C 9.433999258 1.276067809 -0.357850874
C 8.897979830 2.517846057 -0.541338257
C 7.518478244 2.696908211 -0.482000047
C 6.701876440 1.628232806 -0.265622218
C 7.211397038 0.324326130 -0.081640368
S 4.015133903 0.776196867 -0.104064078
S -0.362854037 -0.124792271 0.120759164
S -3.752794327 0.131580710 0.169132221
C -7.006234486 -0.668902924 -0.197324635
C -6.115820714 -1.661963326 -0.654952091
C -6.525566465 -2.941730692 -0.887343215
C -7.851512739 -3.301648065 -0.659801647
C -8.750172196 -2.365264818 -0.237370111
C -8.372707700 -1.023684030 -0.035075379
H -11.112240985 0.683443708 2.230639226
H -12.511661609 -0.090064742 1.486544586
H -11.872992776 1.412109106 0.803889981
H -10.728280471 -1.234818066 -1.480257876
H -11.860232884 -1.922854142 -0.296934489
H -12.205407041 -0.371974996 -1.069257785
H -9.565665760 1.991800027 0.987351973
H -7.216356359 2.576006921 0.793064650
H -5.509882790 3.203653416 -0.455452486
H -2.957975532 3.564390362 -0.541836044
H -0.661020597 3.415899666 -0.472953936
H 1.826529927 2.686426871 -0.391320042
H 1.828498490 -2.032035397 0.371211820
H 4.299894886 -2.763788637 0.437250153
H 6.333573591 -2.938421618 0.313863147
H 8.739869002 -3.210802720 0.359020556
H 10.814748371 0.247768891 1.606432765
H 12.180890526 0.010445033 0.496670024
H 11.919736655 -1.100858251 1.844822436
H 10.711831494 -3.064599156 -0.965648448
H 11.098077121 -3.319093246 0.746362658
H 12.251134529 -2.499564903 -0.316376872
H 10.495070784 1.138582041 -0.456724772
H 9.539816936 3.360594941 -0.740435773
H 7.098875925 3.679702260 -0.623091977
H 5.632574875 1.784588670 -0.243762248
H -5.086814448 -1.402356121 -0.814544231
H -5.820684369 -3.681712079 -1.229872246
H -8.164148263 -4.321620616 -0.813670344
H -9.759942738 -2.661488458 -0.020072952
