58
0 1 Before single point calculation
C 11.816806657 -0.874524719 -0.267378539
N 10.465103912 -1.387536574 -0.070658142
C 10.117252014 -2.709023649 0.152950132
C 8.760618714 -2.805767239 0.267838444
C 8.220848128 -1.500855054 0.109735493
C 6.909340759 -1.008084905 0.130863954
C 6.681112597 0.343907832 -0.053296629
C 5.316012571 0.852797791 -0.029263940
C 4.922431671 2.163174653 -0.057910752
C 3.520779176 2.345348557 -0.024588208
C 2.808969828 1.180709518 0.026293213
C 1.363050591 1.091006099 0.061931621
C 0.742458587 -0.144349386 0.083638714
C -0.615410758 -0.181603036 0.103012155
C -1.303192673 1.017867603 0.103162301
C -2.752339606 1.028026968 0.108996036
C -3.528287801 2.151390526 0.148562500
C -4.918205625 1.892646798 0.132166536
C -5.238544321 0.563205104 0.078108288
C -6.574759472 -0.016370377 0.035859310
C -6.722865362 -1.428225762 0.027075364
C -7.946121858 -2.033588749 -0.022915082
C -9.090168513 -1.226370013 -0.067418286
C -8.971804920 0.176453993 -0.058559733
C -10.287507046 0.710822354 -0.114131113
C -11.159724700 -0.338183632 -0.155191733
N -10.449159598 -1.526064975 -0.126488781
C -11.015654598 -2.869911636 -0.169710501
C -7.706994496 0.779472822 -0.006510102
S -3.773424182 -0.383503259 0.061938532
N -0.648826432 2.187165309 0.089293223
N 0.645353659 2.222656219 0.066665716
S 3.906952132 -0.172854802 0.042362382
C 7.788082692 1.208710729 -0.267141095
C 9.073475280 0.745825255 -0.293653992
C 9.300807665 -0.623533809 -0.102200823
H 11.931330776 -0.512301447 -1.287129006
H 12.008274682 -0.055148859 0.422642375
H 12.548724039 -1.659807660 -0.089379331
H 10.823235788 -3.519653274 0.222076764
H 8.192718733 -3.703300288 0.445153077
H 6.086919689 -1.679458721 0.291107369
H 5.614961137 2.989001691 -0.094007325
H 3.042867118 3.312717589 -0.040898395
H 1.331179375 -1.044966981 0.080002792
H -1.153642438 -1.113185647 0.115136551
H -3.104924735 3.143355810 0.184008873
H -5.655766650 2.678974264 0.157239812
H -5.831747585 -2.029799236 0.059486183
H -8.045358735 -3.104284571 -0.030363882
H -10.540248190 1.757495600 -0.123958434
H -12.233874055 -0.273802012 -0.203454773
H -10.658546177 -3.395078797 -1.053318266
H -12.102092490 -2.821384026 -0.206072711
H -10.719192504 -3.426992153 0.716747851
H -7.632223164 1.850206178 -0.006122728
H 7.604093264 2.257062861 -0.419907797
H 9.905543987 1.406785545 -0.458586441
