59
0 1 Before single point calculation
C 7.037697683 4.325595340 0.377120221
N 6.900366342 3.092086873 -0.395888722
C 7.907345594 2.839006848 -1.425461472
C 5.845313929 2.190451420 -0.161461584
C 4.911732317 2.418263235 0.855184025
C 3.881654400 1.540130934 1.084879241
C 3.732034521 0.387072044 0.308761039
C 2.648265790 -0.557136093 0.530951542
C 1.651137176 -0.459571101 1.462819382
C 0.727324762 -1.529010565 1.433895522
C 0.989173427 -2.467805217 0.476545021
C 0.208024415 -3.678642720 0.206071134
C 0.839324495 -4.964256098 0.084631283
C -0.013612549 -5.976852751 -0.164479893
S -1.636822292 -5.399708863 -0.272121138
C -1.164084162 -3.739222685 0.001929661
C -2.110530131 -2.657938408 -0.046943473
C -3.433911331 -2.813022270 -0.372477167
C -4.170154681 -1.609276539 -0.426685134
C -3.432946921 -0.493470810 -0.132948409
C -3.890592481 0.885730187 -0.121699051
C -5.200448342 1.237511073 -0.461420122
C -5.606674071 2.548753368 -0.444098836
C -4.726742143 3.575822991 -0.085325470
N -5.145172130 4.919291155 -0.066566834
C -6.482221489 5.310305845 -0.510832689
C -4.262666927 5.988330295 0.398659762
C -3.416592064 3.222508120 0.254117816
C -3.011821277 1.911850224 0.234480633
S -1.797927915 -0.962459232 0.252584588
S 2.435915075 -2.025227623 -0.392121131
C 4.664459699 0.159860116 -0.705925044
C 5.694597418 1.036457674 -0.937167493
H 6.131345148 4.922379186 0.292297332
H 7.871266752 4.925383948 0.017271630
H 7.213715459 4.091316777 1.425430814
H 8.389203105 1.879138870 -1.248630306
H 7.440797531 2.828105124 -2.408838911
H 8.676811396 3.608386100 -1.421605092
H 5.006309642 3.296068766 1.469075559
H 3.178684219 1.739702833 1.874000772
H 1.566897866 0.361516050 2.156824482
H -0.108750793 -1.608853758 2.112098244
H 1.905665330 -5.091662238 0.192735864
H 0.260449378 -7.007980619 -0.283645900
H -3.862415900 -3.777243721 -0.597390010
H -5.216210977 -1.576855871 -0.686755115
H -5.897401681 0.467551806 -0.741232825
H -6.620809440 2.792786052 -0.705450535
H -7.234106860 4.896317899 0.158436746
H -6.662214997 4.943950994 -1.519878062
H -6.592359080 6.392864899 -0.521328759
H -3.414849968 6.092661742 -0.275921879
H -3.897068818 5.761957274 1.398629060
H -4.786609271 6.941235442 0.439748738
H -2.716052843 3.991139209 0.527586892
H -1.999970137 1.655467056 0.495522484
H 4.560697007 -0.722914010 -1.312114353
H 6.394736693 0.836646502 -1.728432200
