20
0 1 Before single point calculation
N 1.707100107 0.001600000 -0.003500000
C 0.296700010 0.000800000 -0.002200000
C -0.402000030 1.190100029 -0.209900010
C -0.399600012 -1.189600035 0.207499992
C 2.440799958 1.176100055 0.424500007
C 2.441300078 -1.176699973 -0.419700003
C -1.796799994 1.189300013 -0.207900000
C -1.794600043 -1.190500101 0.209400000
C -2.492999998 -0.001000000 0.001700000
H 0.109300008 2.131900200 -0.387800020
H 0.112999998 -2.130800035 0.384400013
H 2.474400149 1.924999968 -0.373699996
H 3.475500081 0.923799987 0.682499989
H 1.993899928 1.624300096 1.319300119
H 3.474500091 -0.925100061 -0.684700003
H 2.479500018 -1.915599994 0.387600016
H 1.992600043 -1.636900010 -1.307400046
H -2.341100053 2.114700159 -0.372099994
H -2.337300196 -2.116600088 0.375200011
H -3.579100018 -0.001700000 0.003300000
20
step=1 E=-365.852559148019 Eh
N 1.7071000008 0.0016000000 -0.0035000000
C 0.2967000001 0.0008000000 -0.0022000000
C -0.4020000002 1.1901000006 -0.2099000001
C -0.3996000002 -1.1896000006 0.2075000001
C 2.4408000012 1.1761000006 0.4245000002
C 2.4413000012 -1.1767000006 -0.4197000002
C -1.7968000008 1.1893000006 -0.2079000001
C -1.7946000008 -1.1905000006 0.2094000001
C -2.4930000012 -0.0010000000 0.0017000000
H 0.1093000001 2.1319000010 -0.3878000002
H 0.1130000001 -2.1308000010 0.3844000002
H 2.4744000012 1.9250000009 -0.3737000002
H 3.4755000016 0.9238000004 0.6825000003
H 1.9939000009 1.6243000008 1.3193000006
H 3.4745000016 -0.9251000004 -0.6847000003
H 2.4795000012 -1.9156000009 0.3876000002
H 1.9926000009 -1.6369000008 -1.3074000006
H -2.3411000011 2.1147000010 -0.3721000002
H -2.3373000011 -2.1166000010 0.3752000002
H -3.5791000017 -0.0017000000 0.0033000000
20
step=2 E=-365.855910315109 Eh
N 1.7241483179 -0.0017807134 -0.0051859142
C 0.3321106533 0.0183382676 -0.0052276060
C -0.4086348374 1.2036699738 -0.1477125928
C -0.3891878880 -1.1785149786 0.1413087438
C 2.4456462462 1.1991500467 0.3409314380
C 2.4378482798 -1.2122482375 -0.3330506500
C -1.8026519847 1.1753840313 -0.1354400611
C -1.7835559036 -1.1728864362 0.1361220653
C -2.5329903690 -0.0045901704 0.0021739715
H 0.1031552684 2.1601671573 -0.2762413329
H 0.1381204945 -2.1268256582 0.2674335355
H 2.5226333904 1.9339087221 -0.4845741679
H 3.4693909835 0.9302500578 0.6386543240
H 1.9750826845 1.7015371928 1.2024079005
H 3.4648184654 -0.9549728486 -0.6302142615
H 2.5057816985 -1.9380798600 0.5013195440
H 1.9664763807 -1.7205276343 -1.1903879845
H -2.3436396740 2.1192649516 -0.2495086249
H -2.3088269689 -2.1252696723 0.2529715632
H -3.6268426731 -0.0132210164 0.0049795914
20
step=3 E=-365.855670527161 Eh
N 1.7073657320 -0.0034794696 -0.0028817808
C 0.3343943599 -0.0212377286 0.0011088172
C -0.3852631654 1.1965191236 -0.0452633620
C -0.4136742253 -1.2245834846 0.0503329858
C 2.4101085382 1.2309881457 0.2180816263
C 2.4386829337 -1.2205543275 -0.2171030009
C -1.7753448042 1.2150067059 -0.0343212100
C -1.8033819377 -1.2190081618 0.0409710886
C -2.4693990271 0.0059569602 0.0033235095
H 0.1698130157 2.1408636675 -0.0946183787
H 0.1211100597 -2.1797880684 0.1020124781
H 2.4930971327 1.9086399040 -0.6655955482
H 3.4343518308 0.9887968161 0.5461534194
H 1.9239101990 1.8099924368 1.0269844672
H 3.4521025920 -0.9528154550 -0.5583409699
H 2.5486515725 -1.8874371718 0.6720795205
H 1.9597572516 -1.8191784291 -1.0155455039
H -2.3083472655 2.1771888620 -0.0718805114
H -2.3564041244 -2.1698110835 0.0807589053
H -3.5662889805 0.0187618540 0.0041640033
20
step=4 E=-365.857740060645 Eh
N 1.7055302520 0.0205022185 0.0037572093
C 0.3229492375 0.0101696663 0.0020477581
C -0.4215187247 1.2103106943 -0.0446590671
C -0.3992022588 -1.2037696434 0.0442972853
C 2.4698161940 1.2193260665 0.2329968337
C 2.4189894484 -1.2093708712 -0.2194805813
C -1.8121994264 1.1913215008 -0.0435698558
C -1.7896426270 -1.2034106782 0.0356345108
C -2.5124670610 -0.0125630031 -0.0058365972
H 0.0970738780 2.1701435069 -0.0957122831
H 0.1362415327 -2.1546666281 0.0976252672
H 2.5461305419 1.8736581773 -0.6599046537
H 3.4928983576 0.9502603169 0.5354750738
H 2.0320606304 1.8193975455 1.0483900422
H 3.4471863210 -0.9846902219 -0.5401250794
H 2.4820180897 -1.8557199562 0.6804801509
H 1.9453292817 -1.8011963954 -1.0207472707
H -2.3552274094 2.1416158490 -0.0837428231
H -2.3174836568 -2.1622599688 0.0728749704
H -3.6058649399 -0.0225427895 -0.0086121196
20
step=5 E=-365.856335063523 Eh
N 1.7131317727 -0.0340530858 -0.0155272009
C 0.3264585459 -0.0299528629 -0.0076093001
C -0.3754138282 1.1911778961 -0.0401709846
C -0.4197555869 -1.2240437647 0.0393066047
C 2.3718417260 1.2255666083 0.2252137288
C 2.4890652153 -1.2321511292 -0.2394780855
C -1.7668370897 1.1953806548 -0.0288757849
C -1.8109253021 -1.1737095972 0.0479767439
C -2.5208579315 0.0244414820 0.0140753900
H 0.1599680692 2.1392465052 -0.0928680918
H 0.0760758644 -2.1925198973 0.0896003091
H 2.3794250355 1.8696990789 -0.6719438795
H 3.4136586336 1.0560983162 0.5262431035
H 1.8871097440 1.7860487381 1.0390790474
H 3.5155976202 -0.9736260450 -0.5314171981
H 2.5459837143 -1.8667754072 0.6629155290
H 2.0685360188 -1.8404055507 -1.0537152647
H -2.2809765419 2.1575289400 -0.0600494673
H -2.3611457839 -2.1153781865 0.0887794335
H -3.6116320781 0.0446688791 0.0218931940
20
step=6 E=-365.858004397817 Eh
N 1.7101061972 -0.0056003348 -0.0039651507
C 0.3267695604 -0.0094571822 -0.0002011052
C -0.3982881487 1.2005609519 -0.0424693552
C -0.4084929583 -1.2135471726 0.0436814358
C 2.4248767887 1.2231114181 0.2292993251
C 2.4515930218 -1.2216898882 -0.2275605336
C -1.7893691983 1.1956978514 -0.0360208340
C -1.7996212004 -1.1917588659 0.0405883559
C -2.5122101670 0.0050721223 0.0031438256
H 0.1312562603 2.1537365537 -0.0944012203
H 0.1110031124 -2.1719321321 0.0942157409
H 2.4755060275 1.8763557067 -0.6641934014
H 3.4561095506 0.9972400121 0.5355395986
H 1.9613287289 1.8055448962 1.0423830933
H 3.4753894284 -0.9778063984 -0.5455424396
H 2.5237186351 -1.8631317924 0.6732284216
H 1.9947190902 -1.8238937480 -1.0293854102
H -2.3186215833 2.1523576894 -0.0729316344
H -2.3387796838 -2.1428151998 0.0789266356
H -3.6049122359 0.0099193509 0.0046328212
20
step=7 E=-365.858127624648 Eh
N 1.7083476875 -0.0014264045 -0.0032640235
C 0.3264368282 0.0081762503 -0.0019800127
C -0.4114285699 1.2114018199 -0.0301742036
C -0.4068816364 -1.1972867212 0.0281821571
C 2.4377454168 1.2221635026 0.2140292351
C 2.4375308046 -1.2281034231 -0.2080103983
C -1.8024972753 1.1960899960 -0.0257661174
C -1.7981943852 -1.1993417542 0.0264732504
C -2.5121663270 -0.0031426394 0.0009686211
H 0.1070215220 2.1705650773 -0.0726659385
H 0.1189888651 -2.1523512293 0.0698985115
H 2.4847043252 1.8683085071 -0.6845802111
H 3.4687782766 0.9865559324 0.5122986386
H 1.9896743795 1.8143509263 1.0284934264
H 3.4675240933 -0.9974651104 -0.5142345526
H 2.4878863597 -1.8635426660 0.6981907009
H 1.9854194979 -1.8293610398 -1.0131562600
H -2.3407777247 2.1482481726 -0.0523229055
H -2.3288172980 -2.1558630272 0.0541509538
H -3.6046097304 -0.0055795163 0.0020171275
20
step=8 E=-365.858253385982 Eh
N 1.6988193938 0.0053062227 -0.0021049039
C 0.3189774994 0.0008430551 -0.0027382993
C -0.4168697555 1.2062872248 -0.0123433643
C -0.4093266843 -1.2088022659 0.0092720925
C 2.4408992313 1.2266488864 0.1884637438
C 2.4275465726 -1.2241400212 -0.1818132425
C -1.8080378807 1.1959808076 -0.0103916096
C -1.8003754930 -1.2002740221 0.0083667553
C -2.5159019763 -0.0042973252 -0.0009030557
H 0.1015357775 2.1660356211 -0.0405814439
H 0.1130852304 -2.1666743213 0.0389166590
H 2.4702558784 1.8652371023 -0.7163992611
H 3.4764128653 0.9860454703 0.4665774556
H 2.0154259907 1.8276431887 1.0087650818
H 3.4631615879 -0.9947296839 -0.4684307432
H 2.4557674418 -1.8529315937 0.7299736910
H 1.9923541351 -1.8294487567 -0.9936351875
H -2.3453784823 2.1494590976 -0.0224850447
H -2.3338360881 -2.1558200160 0.0216913865
H -3.6085302767 -0.0075391811 -0.0003547817
20
step=9 E=-365.858402904397 Eh
N 1.6970613761 0.0027527635 -0.0026545406
C 0.3167448292 -0.0017817401 -0.0020440466
C -0.4149696384 1.2057849541 -0.0047510880
C -0.4142673357 -1.2098789737 0.0023391722
C 2.4333962396 1.2302507061 0.1752678324
C 2.4262747075 -1.2290177048 -0.1704998453
C -1.8063150526 1.1933340533 -0.0028819196
C -1.8055347573 -1.2008669991 0.0015624403
C -2.5193686621 -0.0039633875 -0.0003921022
H 0.1032457912 2.1657711221 -0.0266370677
H 0.1055255471 -2.1691732380 0.0245480100
H 2.4336614252 1.8706290236 -0.7281344280
H 3.4771883941 0.9976998986 0.4266640803
H 2.0240223767 1.8258610307 1.0079977422
H 3.4692789004 -1.0025892169 -0.4302368853
H 2.4285797105 -1.8601961245 0.7394355353
H 2.0103362374 -1.8309576447 -0.9952780321
H -2.3423354939 2.1473872251 -0.0085975069
H -2.3400800306 -2.1557374156 0.0083254218
H -3.6119978888 -0.0042767469 0.0002306330
20
step=10 E=-365.858684096230 Eh
N 1.6921830602 -0.0142762820 -0.0059117424
C 0.3096680353 -0.0120097474 -0.0010807252
C -0.4228409973 1.1942764511 0.0221737709
C -0.4247485547 -1.2169483438 -0.0245620271
C 2.3930903492 1.2416255598 0.1209717212
C 2.4223256393 -1.2549592016 -0.1240563934
C -1.8147036299 1.1994264699 0.0252090533
C -1.8165785652 -1.1913868546 -0.0238374008
C -2.5311485042 0.0048495452 0.0018008363
H 0.0971765514 2.1529469389 0.0270328790
H 0.0843516912 -2.1814632102 -0.0331248185
H 2.2607417130 1.8917714572 -0.7630421162
H 3.4658914517 1.0489088355 0.2452078922
H 2.0596886068 1.8094768376 1.0074565149
H 3.4906673932 -1.0409722736 -0.2533265539
H 2.3073567810 -1.9024425554 0.7645973827
H 2.1002250446 -1.8374182048 -1.0052200069
H -2.3438589374 2.1566531200 0.0438031771
H -2.3565215144 -2.1423598849 -0.0414834678
H -3.6236220366 0.0065078262 0.0032023289
20
step=11 E=-365.858995789674 Eh
N 1.6811057443 -0.0094141993 -0.0069564010
C 0.2992744666 -0.0081594512 -0.0042556467
C -0.4294639380 1.1996651814 0.0505552303
C -0.4376630305 -1.2117908870 -0.0566897131
C 2.3874978675 1.2466640576 0.0639172999
C 2.3990535265 -1.2597648137 -0.0690956015
C -1.8212041247 1.1871657993 0.0519984683
C -1.8293930496 -1.2006565641 -0.0541606639
C -2.5414925436 -0.0043921875 -0.0001075187
H 0.0856038029 2.1603184456 0.0880851676
H 0.0744461758 -2.1737566035 -0.0954629207
H 2.1643311566 1.9015653749 -0.7975103259
H 3.4671840489 1.0541479566 0.0744190032
H 2.1437785297 1.8098980051 0.9837757993
H 3.4774265807 -1.0593582214 -0.0762265694
H 2.1784937009 -1.9146607785 0.7934434249
H 2.1649814935 -1.8290470450 -0.9876510841
H -2.3540359448 2.1415479503 0.0962041279
H -2.3654627795 -2.1534287643 -0.0963012609
H -3.6341120995 -0.0008898537 0.0015918163
20
step=12 E=-365.859065745846 Eh
N 1.6737426802 -0.0045493649 -0.0064969755
C 0.2924891413 -0.0056215076 -0.0049309068
C -0.4400880595 1.1999347701 0.0586507871
C -0.4418158530 -1.2106106311 -0.0653334437
C 2.3927516167 1.2430271227 0.0511038810
C 2.3931840005 -1.2524014271 -0.0560746675
C -1.8314611546 1.1869222988 0.0598181879
C -1.8331738305 -1.2021498934 -0.0635846708
C -2.5470250626 -0.0071588393 -0.0011938513
H 0.0761881044 2.1596648973 0.1066801306
H 0.0751321536 -2.1698831381 -0.1132287406
H 2.1734330201 1.8903422332 -0.8174814195
H 3.4717852505 1.0410254449 0.0564405822
H 2.1567599192 1.8196168462 0.9646251529
H 3.4724120772 -1.0510389184 -0.0540407306
H 2.1676118284 -1.8982156456 0.8122940677
H 2.1646615924 -1.8311314565 -0.9699201887
H -2.3660097791 2.1403373034 0.1109040041
H -2.3671428818 -2.1560561852 -0.1125531343
H -3.6396921672 -0.0065916221 0.0001499153
20
step=13 E=-365.859075494325 Eh
N 1.6675391224 -0.0048141172 -0.0056913177
C 0.2867632621 -0.0054345280 -0.0038102834
C -0.4460963146 1.1998315795 0.0614146136
C -0.4446646735 -1.2115734483 -0.0678123954
C 2.3854802260 1.2438651190 0.0428475781
C 2.3849309130 -1.2539320321 -0.0481000667
C -1.8373445692 1.1885412320 0.0621348638
C -1.8358736944 -1.2017633723 -0.0663569176
C -2.5501611874 -0.0070590505 -0.0014943143
H 0.0718075862 2.1585215330 0.1133798606
H 0.0744427500 -2.1696074073 -0.1211077925
H 2.1494192089 1.8936599669 -0.8197699803
H 3.4648121087 1.0447946890 0.0251012286
H 2.1659019076 1.8186736030 0.9616217116
H 3.4642943431 -1.0555826528 -0.0242567482
H 2.1432392878 -1.9020764349 0.8142376946
H 2.1705118921 -1.8300057008 -0.9672634355
H -2.3723752908 2.1416020822 0.1147280155
H -2.3698748769 -2.1554441154 -0.1180305369
H -3.6427751060 -0.0077875951 -0.0006742650
20
step=14 E=-365.859078743002 Eh
N 1.6645654804 -0.0051618837 -0.0052025416
C 0.2834246572 -0.0058161392 -0.0035937324
C -0.4495755846 1.1995567262 0.0574324021
C -0.4487039431 -1.2117619291 -0.0638604199
C 2.3821563267 1.2435227822 0.0464726614
C 2.3832948980 -1.2533550220 -0.0515620283
C -1.8408111106 1.1892388327 0.0583878432
C -1.8399374911 -1.2015965268 -0.0623540231
C -2.5538462244 -0.0064646773 -0.0012876847
H 0.0690866847 2.1579701608 0.1060526094
H 0.0702927364 -2.1698952916 -0.1142898635
H 2.1496908053 1.8946451197 -0.8163100349
H 3.4615353914 1.0445959804 0.0317324998
H 2.1594769855 1.8171608851 0.9651043953
H 3.4624276638 -1.0534348776 -0.0328638250
H 2.1478649071 -1.9029511077 0.8115310530
H 2.1646862659 -1.8288012368 -0.9700533617
H -2.3756070397 2.1426096392 0.1074183856
H -2.3743714487 -2.1551951766 -0.1107653767
H -3.6464458747 -0.0069043766 -0.0004227746
20
step=15 E=-365.859080001375 Eh
N 1.6552032554 -0.0049351056 -0.0042775154
C 0.2739283086 -0.0053082702 -0.0035624091
C -0.4594518844 1.2001527162 0.0527797527
C -0.4585431328 -1.2113638773 -0.0593883161
C 2.3728168878 1.2435728863 0.0480354825
C 2.3743990615 -1.2527274872 -0.0528973473
C -1.8506229961 1.1895706253 0.0538034047
C -1.8497619468 -1.2014393577 -0.0580198949
C -2.5638448184 -0.0062390778 -0.0014243734
H 0.0593694454 2.1586093115 0.0978696830
H 0.0606910903 -2.1694780318 -0.1060942369
H 2.1429638574 1.8946021440 -0.8156609806
H 3.4521382622 1.0444066091 0.0349337986
H 2.1483857911 1.8176141456 0.9659328061
H 3.4534061124 -1.0520432714 -0.0395453379
H 2.1447087988 -1.9021204262 0.8120319940
H 2.1511263569 -1.8290249794 -0.9696799200
H -2.3856551853 2.1429956723 0.0988027548
H -2.3842316018 -2.1551991662 -0.1026775610
H -3.6564402273 -0.0066661203 -0.0005175482
20
step=16 E=-365.859072997491 Eh
N 1.6027367265 -0.0038229123 0.0000916007
C 0.2210922264 -0.0038902613 -0.0025371217
C -0.5133172722 1.2019188316 0.0354784316
C -0.5126553562 -1.2101624379 -0.0414587393
C 2.3200559479 1.2447854531 0.0454965617
C 2.3233214467 -1.2506033662 -0.0502345591
C -1.9043444171 1.1910696924 0.0356104579
C -1.9038619269 -1.2007305943 -0.0415428153
C -2.6181932180 -0.0050746926 -0.0028637751
H 0.0060021046 2.1604989671 0.0672950660
H 0.0069068373 -2.1684667330 -0.0732456437
H 2.0917029275 1.8921156202 -0.8217450546
H 3.3992731588 1.0456107121 0.0308822362
H 2.0959197673 1.8232022787 0.9605758323
H 3.4018035954 -1.0475643320 -0.0536053280
H 2.1104947617 -1.8956810404 0.8226208794
H 2.0862997124 -1.8332426668 -0.9593595521
H -2.4399980570 2.1447534675 0.0651654219
H -2.4386728732 -2.1548696850 -0.0721914670
H -3.7107854930 -0.0052519921 -0.0024980393
20
step=17 E=-365.859066399993 Eh
N 1.5445315752 -0.0025082360 0.0036006644
C 0.1628392202 -0.0024569690 -0.0015022958
C -0.5720280711 1.2035922239 0.0216547098
C -0.5709921688 -1.2091369830 -0.0264580691
C 2.2618170671 1.2464082224 0.0360213876
C 2.2655047407 -1.2492718423 -0.0414712762
C -1.9629835834 1.1920891763 0.0203023003
C -1.9621880758 -1.2001638517 -0.0282660172
C -2.6768679929 -0.0043854077 -0.0048555381
H -0.0528981917 2.1625443793 0.0430756435
H -0.0511423309 -2.1675919373 -0.0451737688
H 2.0304669406 1.8866546969 -0.8357313682
H 3.3409485875 1.0471462237 0.0179316265
H 2.0412248178 1.8321629760 0.9472551797
H 3.3437233089 -1.0455742409 -0.0569168958
H 2.0622901371 -1.8866301664 0.8394538198
H 2.0197940164 -1.8403819878 -0.9426886768
H -2.4991458049 2.1457718318 0.0377015483
H -2.4969194318 -2.1546428631 -0.0476427719
H -3.7694565979 -0.0046527070 -0.0055234241
20
step=18 E=-365.859078493600 Eh
N 1.5271704482 -0.0018583009 0.0033748451
C 0.1458778860 -0.0020933024 -0.0013495103
C -0.5883861400 1.2042030523 0.0206466824
C -0.5866945320 -1.2093231142 -0.0247871928
C 2.2447287460 1.2473275356 0.0299112034
C 2.2469424352 -1.2496692686 -0.0361947352
C -1.9794386113 1.1920498076 0.0185389457
C -1.9779063364 -1.2004731012 -0.0272119905
C -2.6927846793 -0.0047248189 -0.0056873446
H -0.0701512689 2.1637759834 0.0411299606
H -0.0668778164 -2.1680597580 -0.0411800886
H 2.0116166288 1.8828782268 -0.8444843583
H 3.3239441629 1.0479230628 0.0137377133
H 2.0245008779 1.8373210969 0.9385758613
H 3.3255614229 -1.0475298777 -0.0538531505
H 2.0414052361 -1.8820212728 0.8475797650
H 2.0009900275 -1.8445979765 -0.9348294183
H -2.5156233355 2.1457283087 0.0353729505
H -2.5121634093 -2.1552283879 -0.0456848763
H -3.7853845936 -0.0053329611 -0.0069156038
20
step=19 E=-365.859085521486 Eh
N 1.5175183400 -0.0018863840 0.0020926020
C 0.1365197081 -0.0028594499 -0.0014575503
C -0.5969355486 1.2036262980 0.0210551079
C -0.5953012952 -1.2102850772 -0.0249792590
C 2.2346496109 1.2479315781 0.0256029998
C 2.2364001792 -1.2504001377 -0.0329285320
C -1.9881657103 1.1922711944 0.0187010449
C -1.9865542855 -1.2008241255 -0.0274866198
C -2.7010566748 -0.0047416963 -0.0058842835
H -0.0789052913 2.1633849785 0.0416687909
H -0.0759415428 -2.1694100144 -0.0410998554
H 2.0006040936 1.8804133765 -0.8505264442
H 3.3140851202 1.0491073572 0.0128801468
H 2.0130816025 1.8405125058 0.9323238491
H 3.3153524751 -1.0493194649 -0.0502075339
H 2.0267552998 -1.8795528330 0.8519296899
H 1.9922902006 -1.8474860655 -0.9306755024
H -2.5237302459 2.1463088269 0.0363219873
H -2.5207329720 -2.1556158418 -0.0462567706
H -3.7936634425 -0.0054097940 -0.0073738971
20
step=20 E=-365.859088072192 Eh
N 1.4999247979 -0.0017518698 0.0009320819
C 0.1190077973 -0.0027935364 -0.0017113130
C -0.6143508294 1.2037363065 0.0198560262
C -0.6124350314 -1.2104354370 -0.0238635445
C 2.2171018694 1.2481662798 0.0195246665
C 2.2183626502 -1.2507275886 -0.0279930793
C -2.0056169933 1.1921756174 0.0173116141
C -2.0036841679 -1.2009864255 -0.0263951372
C -2.7182931996 -0.0049382596 -0.0061704515
H -0.0967585510 2.1637715884 0.0395927301
H -0.0932016841 -2.1697018777 -0.0386493031
H 1.9826486918 1.8769183832 -0.8590546169
H 3.2965487334 1.0492252284 0.0089208649
H 1.9951395303 1.8444652679 0.9237603489
H 3.2975018932 -1.0503390627 -0.0439598852
H 2.0054145771 -1.8764955104 0.8583609446
H 1.9764036576 -1.8507804200 -0.9243836383
H -2.5410538007 2.1462881675 0.0344619514
H -2.5375979097 -2.1559332238 -0.0442421242
H -3.8109011103 -0.0057875612 -0.0078846036
20
step=21 E=-365.859089726596 Eh
N 1.4895359418 -0.0019086508 -0.0001895243
C 0.1085925166 -0.0029302667 -0.0021088304
C -0.6247553625 1.2035943753 0.0188247384
C -0.6228926154 -1.2105603068 -0.0233313346
C 2.2066969462 1.2480232631 0.0166689519
C 2.2079932843 -1.2509208464 -0.0258588871
C -2.0160309060 1.1921178854 0.0165087823
C -2.0141446449 -1.2010888439 -0.0255869536
C -2.7287190792 -0.0050030277 -0.0060513456
H -0.1070944833 2.1636083489 0.0377475812
H -0.1036624575 -2.1698273397 -0.0375769465
H 1.9730561183 1.8751940935 -0.8632780086
H 3.2861556990 1.0490928440 0.0078020354
H 1.9838085119 1.8460662607 0.9195287121
H 3.2871622040 -1.0505759767 -0.0398077201
H 1.9929716355 -1.8754459453 0.8608483365
H 1.9680429963 -1.8522599312 -0.9219679926
H -2.5513876141 2.1462797632 0.0332795948
H -2.5480593780 -2.1560479406 -0.0427547480
H -3.8213251898 -0.0058533739 -0.0076844918
20
step=22 E=-365.859090704358 Eh
N 1.4851748914 -0.0021567920 -0.0007848343
C 0.1041455040 -0.0030750249 -0.0023919392
C -0.6292814677 1.2034281422 0.0182738366
C -0.6276011612 -1.2105985687 -0.0232204263
C 2.2022481802 1.2477638637 0.0159278121
C 2.2039124913 -1.2509910126 -0.0253930623
C -2.0205350905 1.1920823410 0.0162035285
C -2.0188503575 -1.2010887306 -0.0252253712
C -2.7333650365 -0.0049744205 -0.0058828095
H -0.1114058250 2.1633143470 0.0367570204
H -0.1083572494 -2.1698171400 -0.0373930631
H 1.9694325261 1.8746979402 -0.8644835287
H 3.2817077889 1.0488913459 0.0077499235
H 1.9787358672 1.8461971125 0.9183557100
H 3.2830155879 -1.0503643289 -0.0379392014
H 1.9882764981 -1.8755095921 0.8612006646
H 1.9650749159 -1.8526026044 -0.9216366787
H -2.5558772631 2.1462537258 0.0327704393
H -2.5528819696 -2.1559887041 -0.0420749400
H -3.8259674681 -0.0057372213 -0.0073730242
