76
0 1 Before single point calculation
C 9.416123095 2.771477931 -1.349999761
N 8.059777453 2.881923113 -0.815350682
C 7.444878738 4.196918207 -1.036939185
C 7.292933879 1.732267132 -0.535220484
C 7.551367113 0.544610869 -1.209302572
C 6.740546725 -0.564219854 -1.065323309
C 5.634321513 -0.556004134 -0.233756600
C 4.751229892 -1.740042092 -0.188952249
C 5.273180332 -3.029954566 -0.089862143
C 4.446635159 -4.135639789 -0.061689690
F 4.976107093 -5.382488762 0.039632342
C 3.077151380 -3.966134433 -0.136308201
C 2.521952498 -2.695410120 -0.246063178
C 1.068649036 -2.459432610 -0.298150505
C 0.126396925 -3.422925581 -0.513127170
S -1.440794387 -2.735314557 -0.475728919
C -0.729107609 -1.158075143 -0.176130789
C -1.510033985 0.051056892 -0.007553878
C -0.889626814 1.248820312 0.334157244
C -1.626019103 2.401382519 0.520158730
F -1.003412044 3.560927871 0.855304451
C -2.998532751 2.362208833 0.369250070
C -3.656714873 1.178076566 0.032386952
C -5.125061826 1.139157735 -0.130840038
C -5.754645216 2.116641596 -0.880785249
C -7.114422565 2.085746776 -1.121907354
C -7.921486748 1.065647428 -0.632710659
N -9.278500564 0.999295826 -1.009989250
C -9.911307235 -0.253393625 -1.441417015
C -10.005122015 2.197010774 -1.427421456
C -7.322889648 0.080506619 0.227307183
C -8.098048550 -0.882026089 0.901509981
C -7.525669688 -1.800878047 1.732736595
C -6.149491810 -1.786668133 1.950338704
C -5.370528256 -0.847414806 1.342646825
C -5.924907313 0.111355760 0.467151324
C -2.888678276 0.035453135 -0.167748704
N 0.571221923 -1.187086688 -0.115226278
C 3.369583236 -1.600857756 -0.279396892
C 5.375108070 0.614725048 0.551968788
C 4.339060750 0.654717423 1.510755527
C 4.132527029 1.756777339 2.286838214
C 4.967145292 2.865471109 2.162735849
C 5.987472369 2.857636725 1.255646885
C 6.209127298 1.753842725 0.410194586
H 9.385498143 2.596900210 -2.424251563
H 9.943721721 1.949289637 -0.869863213
H 9.970769624 3.687998662 -1.160607540
H 7.798082079 4.910449464 -0.293763567
H 6.358815811 4.127890693 -0.984394019
H 7.707503701 4.568434496 -2.026484486
H 8.370114238 0.509805701 -1.906316471
H 6.942836737 -1.448554712 -1.645463379
H 6.334708073 -3.176804603 -0.018165949
H 2.448573530 -4.835413688 -0.095307580
H 0.322440710 -4.462420504 -0.685049923
H 0.176462320 1.281064601 0.460064377
H -3.561542802 3.262073424 0.531485538
H -5.155460689 2.897215151 -1.317241473
H -7.553695122 2.839311412 -1.751038567
H -9.185559860 -1.064409365 -1.458055997
H -10.310102815 -0.142126631 -2.448430206
H -10.729659209 -0.514403241 -0.773018438
H -9.785363608 2.428765518 -2.467807740
H -11.077417239 2.042276391 -1.322759834
H -9.721315854 3.043807557 -0.805297422
H -9.166629961 -0.861947326 0.791804318
H -8.138982752 -2.529695790 2.236911427
H -5.705308884 -2.508220121 2.616338051
H -4.318078388 -0.814790065 1.558687508
H -3.369045014 -0.880957024 -0.458628328
H 2.939850571 -0.621028159 -0.384269810
H 3.717931217 -0.211564293 1.649285947
H 3.332851108 1.766843089 3.009838710
H 4.813433609 3.723729287 2.796518033
H 6.663013878 3.692003918 1.212512605
