58
0 1 Before single point calculation
C 8.747868915 -2.998663206 -0.276035144
N 8.663688146 -1.567393193 0.011919367
C 9.922189782 -0.867517225 0.266696361
C 7.430066383 -0.892710303 0.031636801
C 7.357553921 0.476096124 0.312911227
C 6.153507916 1.133731601 0.327969038
C 4.955457304 0.459551230 0.065551440
C 3.704600047 1.189264939 0.085857164
C 2.484561280 0.639647500 -0.070818814
C 1.229226656 1.361273169 -0.087693986
C 1.196741643 2.746980593 -0.236092021
C 0.002701820 3.430275488 -0.304570509
C -1.193139991 2.749366891 -0.241957495
C -1.229908834 1.363739330 -0.092814594
C -2.486356618 0.644802819 -0.075197433
C -3.709413015 1.197919526 0.039288753
C -4.958575110 0.465088957 0.032428171
C -6.164238054 1.153087940 0.210664637
C -7.366680746 0.492341627 0.211775226
C -7.429628840 -0.894112004 0.033867651
N -8.661085096 -1.573203501 0.036166567
C -9.930346141 -0.856139604 0.150431613
C -8.731857986 -3.029755729 -0.073486769
C -6.224549286 -1.581986777 -0.146845464
C -5.021473747 -0.921693588 -0.148245035
C -0.001217399 0.652549140 0.014462112
N -0.001344100 -0.704438623 0.265169283
C 5.027589755 -0.909790676 -0.216155730
C 6.232442211 -1.566686034 -0.232359157
H 9.775147216 -3.352528665 -0.220475896
H 8.157636600 -3.560484272 0.445488867
H 8.372610300 -3.200555544 -1.277591512
H 10.772461673 -1.541679113 0.183878008
H 9.918696507 -0.446847955 1.270762290
H 10.055825478 -0.064337210 -0.455898671
H 8.261802012 1.019762800 0.520891784
H 6.120234998 2.187624047 0.546316881
H 3.774515010 2.247445756 0.259045642
H 2.427495030 -0.421956192 -0.212066543
H 2.118880911 3.293049117 -0.325692315
H 0.004159418 4.501359774 -0.425953751
H -2.113041711 3.298677873 -0.333297015
H -2.427956544 -0.420447313 -0.180770989
H -3.784688506 2.262373175 0.163707585
H -6.138228747 2.220344611 0.351069848
H -8.276728926 1.046465893 0.357419135
H -10.001453117 -0.095841048 -0.625376207
H -10.002553282 -0.378161214 1.125806630
H -10.775861081 -1.531869101 0.037340972
H -8.122348060 -3.493154949 0.700348773
H -9.753700060 -3.384494001 0.046273388
H -8.371283542 -3.348553436 -1.049924031
H -6.244600545 -2.647203223 -0.293305775
H -4.116122716 -1.482469686 -0.294785667
H 0.820587188 -1.181197148 0.606431736
H -0.822530140 -1.183997774 0.604447276
H 4.128348927 -1.458070884 -0.432223649
H 6.259499198 -2.618371085 -0.455315407
