71
0 1 Before single point calculation
C -7.640607630 -3.994758650 1.425929421
C -7.490631460 -3.544487978 -0.009603699
N -7.187521950 -2.110773631 -0.100769261
C -8.138290355 -1.079839049 -0.074412423
C -9.534268674 -1.109677484 -0.034093594
C -10.218179511 0.080123793 -0.011097143
C -9.540537595 1.304184209 -0.025950841
C -8.168406607 1.352687342 -0.062454459
C -7.457079464 0.151326490 -0.086631450
C -6.043964818 -0.142841816 -0.108011486
C -4.920094578 0.678630235 -0.112507274
C -3.653491087 0.106227653 -0.114916226
C -2.446569767 0.912504184 -0.115243358
C -2.396973281 2.252114896 -0.127698142
C -1.146465251 2.980062348 -0.114794745
C -1.176876983 4.370713196 -0.112278197
C -0.001990781 5.075544320 -0.089868909
C 1.173596423 4.371786613 -0.070351922
C 1.144531257 2.981126934 -0.076053846
C 2.395315212 2.253951363 -0.051171881
C 2.445577347 0.914723565 -0.081465920
C 3.651850681 0.108106623 -0.048318411
C 3.543230611 -1.298215815 -0.174331824
C 4.639767057 -2.117155469 -0.145299745
C 5.904746542 -1.544156124 0.018909698
C 6.033919002 -0.147357128 0.143543455
C 4.911122684 0.674965374 0.109503892
C 7.441531311 0.141826987 0.281416489
C 8.147617531 1.338195069 0.422769866
C 9.516940575 1.286943921 0.516396659
C 10.197180495 0.065138638 0.469810171
C 9.518551459 -1.119694913 0.330497682
C 8.125187797 -1.087248128 0.236977594
N 7.180028213 -2.113211152 0.089920739
C 7.495537286 -3.534732596 -0.097934145
C 7.757837246 -3.861659411 -1.550711188
N -0.000606442 2.285444083 -0.099147969
C -3.538642218 -1.305252832 -0.109810128
C -4.636011357 -2.123718355 -0.105118878
C -5.908891842 -1.544637698 -0.106977062
H -6.726494392 -3.804313072 1.990522473
H -8.442900732 -3.447575831 1.923602431
H -7.865566587 -5.060579052 1.503207287
H -8.402791149 -3.738017046 -0.583189053
H -6.694028430 -4.097013157 -0.517686924
H -10.050826289 -2.052721269 -0.020547703
H -11.295439607 0.073052372 0.019537589
H -10.104853461 2.222048100 -0.006738791
H -7.639514026 2.289428395 -0.070073096
H -5.049573872 1.743904024 -0.109760892
H -1.509379816 0.385680563 -0.100394746
H -3.305950819 2.823714306 -0.143406644
H -2.123495547 4.883371282 -0.125452787
H -0.002565038 6.153381750 -0.086081431
H 2.119656325 4.885297579 -0.050614552
H 3.303747462 2.825277247 -0.010082128
H 1.509539921 0.388438986 -0.135204472
H 2.563666656 -1.727087148 -0.298344990
H 4.543719649 -3.183469936 -0.245311751
H 5.034794320 1.736012613 0.211954934
H 7.617197336 2.273544136 0.454068133
H 10.077160599 2.200938816 0.626005521
H 11.272262467 0.055874292 0.544411653
H 10.037346748 -2.060791078 0.292501563
H 6.664017148 -4.126670923 0.297894988
H 8.361455235 -3.778404950 0.526227962
H 8.591058098 -3.272750321 -1.937642904
H 7.996344378 -4.916705768 -1.700778198
H 6.887914294 -3.624991018 -2.165526381
H -2.553289277 -1.738834560 -0.108812307
H -4.534643290 -3.194206635 -0.097880437
