62
0 1 Before single point calculation
F 3.524653220 0.536528822 0.044841675
C 3.621999125 -0.811795712 0.058001525
C 4.887180476 -1.412610110 0.053669752
C 6.106886670 -0.583211763 0.028330158
C 6.153970691 0.644084495 0.684568286
C 7.293997203 1.411546912 0.672918084
C 8.428990714 0.979808906 0.001463191
N 9.624855632 1.782170957 -0.010445943
C 9.714756248 3.156208560 0.020625232
C 11.049128875 3.459721044 -0.014012999
N 11.786995221 2.330819065 -0.062621921
C 10.938696562 1.335230807 -0.061648261
C 8.388797861 -0.238000214 -0.662686615
C 7.248986336 -1.006059694 -0.650694693
C 4.971105381 -2.802939866 0.077620051
C 3.836573636 -3.580599119 0.095677427
C 2.596920649 -2.984730478 0.089902217
C 2.467111810 -1.602620669 0.072319405
C 1.117983601 -1.014973425 0.064537029
C 0.861004994 0.323710631 0.101254557
S -0.825788747 0.581602078 0.084063301
C -1.111025060 -1.135529210 0.011846569
C -2.437830018 -1.709159005 -0.048240752
C -2.584973264 -3.089631436 -0.133898862
C -3.832988008 -3.661515729 -0.206022229
C -4.956196130 -2.865857428 -0.189334784
C -4.855021349 -1.478838638 -0.096704826
C -6.062787728 -0.631980664 -0.074156708
C -6.059697678 0.638385024 -0.644709141
C -7.185971626 1.425786349 -0.631209729
C -8.358025547 0.971617094 -0.043756915
N -9.537301697 1.798150597 -0.024262352
C -9.929200556 2.725972241 -0.964025390
C -11.107436596 3.259754247 -0.516002612
N -11.458156996 2.702427202 0.662158233
C -10.523839586 1.834282681 0.952582731
C -8.369884617 -0.291118977 0.531506103
C -7.243407794 -1.078722861 0.518223412
C -3.583095938 -0.898161607 -0.030491552
F -3.468805730 0.449477121 0.055638402
N -0.002954148 -1.823525291 0.014460058
H 5.273261583 0.991001883 1.196697107
H 7.320110975 2.354340637 1.190082745
H 8.884625446 3.843128953 0.048478610
H 11.477922616 4.452490256 -0.007107459
H 11.232324469 0.296156741 -0.084367179
H 9.260403359 -0.567360370 -1.200225330
H 7.225989865 -1.938423113 -1.187297637
H 5.940166295 -3.269982751 0.099108100
H 3.918211157 -4.654769670 0.115814494
H 1.702973102 -3.583592273 0.101097371
H 1.604860993 1.092619001 0.134509362
H -1.699997106 -3.701777216 -0.147909056
H -3.931238521 -4.732017887 -0.279190769
H -5.930008444 -3.316724864 -0.266345872
H -5.150002762 1.004964134 -1.087541463
H -7.165897152 2.410871692 -1.062642540
H -9.404978124 2.962134205 -1.875817432
H -11.693888988 4.019646344 -1.014505792
H -10.520056635 1.234513250 1.850917500
H -9.277560882 -0.648754581 0.984708865
H -7.263150199 -2.047521351 0.985758059
