52
0 1 Before single point calculation
C -8.945929854 -1.363240344 -0.185615908
N -7.683584202 -2.087778800 -0.043300502
C -7.761961350 -3.546177841 0.028992319
C -6.449319499 -1.414285969 -0.011737622
C -5.241618221 -2.118104992 0.046367192
C -4.037941629 -1.459371652 0.069520238
C -3.977050288 -0.063240314 0.037516457
C -2.686207847 0.598226236 0.052884840
C -2.477226512 1.921892381 0.039127399
C -1.141441965 2.485594577 0.037769490
C -0.896245529 3.830993076 0.018881788
S 0.790000969 4.130266393 0.005083308
C 1.080470886 2.395453237 0.025104549
C 2.390771733 1.836705946 0.015133389
C 2.601919081 0.507356951 0.042164022
C 3.890799393 -0.147696624 0.023615887
C 3.959238217 -1.542734237 0.105581654
C 5.165162325 -2.196304751 0.087764418
C 6.368817216 -1.489976292 -0.015599757
N 7.605367033 -2.158439403 -0.034562729
C 7.694186661 -3.609334614 0.126328354
C 8.862514153 -1.435901051 -0.227784484
C 6.299607772 -0.094664624 -0.099144184
C 5.093930192 0.559739017 -0.079461967
N -0.018604671 1.686412595 0.043195761
C -5.183282240 0.641720403 -0.017142141
C -6.387224789 -0.016931539 -0.041402632
H -9.786541491 -2.048982476 -0.272153184
H -8.922311639 -0.744286412 -1.080852537
H -9.111580343 -0.728218393 0.682867888
H -7.257470221 -3.903903212 0.924543607
H -8.795674605 -3.883113380 0.068013757
H -7.290981844 -3.988722632 -0.846697743
H -5.258498180 -3.193155675 0.066829274
H -3.119447414 -2.019796695 0.111109138
H -1.816934648 -0.034714167 0.070789962
H -3.306489799 2.603602131 0.023092761
H -1.648353835 4.595002969 0.010127499
H 3.219927527 2.518906858 -0.013589752
H 1.733753869 -0.126379853 0.080923589
H 3.044353602 -2.104857217 0.184513851
H 5.188055844 -3.269693074 0.148535342
H 7.222157456 -4.108118260 -0.718209796
H 7.196242017 -3.914668930 1.044845736
H 8.730615506 -3.936241999 0.181283994
H 8.817670834 -0.845716868 -1.141420138
H 9.702708939 -2.122412036 -0.312128275
H 9.045511919 -0.773538871 0.616657843
H 7.209624663 0.473233929 -0.175423220
H 5.074099975 1.632552971 -0.148344391
H -5.168910959 1.716595967 -0.043637621
H -7.300479091 0.549382203 -0.081381641
