53
0 1 Before single point calculation
C 1.680388058 -1.268028532 -2.784226215
N 1.613324817 -1.888121109 -1.461670265
C 2.886641205 -2.278294274 -0.858510447
C 0.407693950 -1.931561466 -0.736777725
C 0.391803793 -2.256486536 0.624118650
C -0.771921553 -2.209370468 1.349640063
C -1.980131089 -1.830221787 0.754096362
C -3.184384384 -1.695751252 1.567569446
C -4.176035011 -0.791291265 1.408105869
C -4.211970025 0.332503149 0.479743479
C -5.357871820 0.782806245 -0.191889718
C -4.979989968 1.836129116 -0.982757902
O -3.652089387 2.096586300 -0.845040873
C -3.168538984 1.193740162 0.071420230
C -1.801668601 1.147286590 0.512681364
C -0.811248846 1.738986716 -0.175296486
C 0.601886365 1.573334713 0.095455801
C 1.073511840 0.959319852 1.260794318
C 2.413206514 0.732791899 1.448485699
C 3.352381051 1.105049979 0.480489623
N 4.720283974 0.829959847 0.652466753
C 5.230411177 0.222000277 1.880756945
C 5.693436189 1.108087544 -0.403260173
C 2.881942290 1.739709015 -0.674397818
C 1.542749377 1.970537199 -0.860180565
C -1.975639339 -1.568728152 -0.620173639
C -0.811220901 -1.611142529 -1.345012432
H 1.194489081 -0.294029619 -2.764096481
H 2.712825777 -1.122141265 -3.097273292
H 1.183349156 -1.899685708 -3.518485484
H 2.791534236 -3.249594882 -0.375316273
H 3.668769499 -2.355009567 -1.612559370
H 3.190664155 -1.539309091 -0.119455478
H 1.313756525 -2.510635437 1.115723974
H -0.759584380 -2.429755667 2.403426908
H -3.277076542 -2.403111999 2.376679027
H -5.050009901 -0.894927160 2.031924750
H -6.344639330 0.359795939 -0.111207058
H -5.635898079 2.398490045 -1.635493389
H -1.572904488 0.531036388 1.360670350
H -1.084161485 2.298763141 -1.052644730
H 0.374581390 0.652580870 2.018324846
H 2.747590226 0.244337721 2.346352331
H 6.318069343 0.173597429 1.873566889
H 4.843114337 -0.790261312 1.986346767
H 4.925706932 0.812159258 2.743547625
H 5.385391582 0.626004638 -1.330995425
H 6.681294276 0.731056301 -0.139170001
H 5.769117933 2.182547897 -0.566268659
H 3.582788093 2.044699655 -1.430531945
H 1.198334989 2.442065652 -1.764592545
H -2.900379890 -1.302016935 -1.101699523
H -0.830740245 -1.382581543 -2.395635420
