58
0 1 Before single point calculation
C 11.372786233 -0.908032242 -0.294008991
N 10.655987537 0.333280361 -0.005610358
C 11.468188682 1.514143580 0.283719454
C 9.249862973 0.387724384 -0.001936360
C 8.481010337 -0.767996224 -0.173724683
C 7.110138988 -0.711359946 -0.166386966
C 6.434617664 0.498743589 0.008308061
C 4.981113347 0.531091270 0.013988101
C 4.182559039 1.643151141 0.064342789
C 2.798190233 1.360737974 0.058135741
C 2.500928502 0.026162590 0.005565669
C 1.179610615 -0.537090322 -0.002370179
C 0.878818957 -1.874853905 -0.007992169
N -0.434920662 -2.205073013 -0.003515478
C -1.207742281 -1.142493808 0.000838629
C -2.637651976 -1.206699900 0.009886501
C -3.366696566 -2.365219399 0.056530149
C -4.764293086 -2.165748180 0.062810519
C -5.142661433 -0.849475028 0.015986052
C -6.499896291 -0.330567294 0.009940330
C -6.728697245 1.037621994 -0.155578526
C -8.000802064 1.551356021 -0.166938199
C -9.114194496 0.719607712 -0.008736939
N -10.420561371 1.243059966 -0.019179488
C -10.680979444 2.645655927 -0.339195481
C -11.582290903 0.409273608 0.285593677
C -8.885511633 -0.650156597 0.160773303
C -7.612288482 -1.162853037 0.168361979
S -3.718315013 0.162280667 -0.035812853
S -0.303484664 0.365316161 -0.002987941
S 3.980161534 -0.898775908 -0.046235069
C 7.202190981 1.654712206 0.179180355
C 8.573766335 1.599595847 0.175427084
H 11.199923104 -1.631990020 0.500173456
H 12.444102411 -0.733944927 -0.372157841
H 11.030449290 -1.326142462 -1.238857891
H 12.522650135 1.256601580 0.359929927
H 11.161130690 1.956119742 1.229778757
H 11.351413767 2.250848192 -0.508911785
H 8.973187696 -1.714855764 -0.305562297
H 6.532146257 -1.609498086 -0.296299655
H 4.570308308 2.648732351 0.100582891
H 2.035282397 2.122714077 0.095631834
H 1.642033817 -2.639337550 -0.009165492
H -2.900830554 -3.337967127 0.089296369
H -5.467511308 -2.982648492 0.094523429
H -5.881815678 1.690497209 -0.275452890
H -8.145796708 2.609798632 -0.289250147
H -10.314390429 3.285519802 0.461427061
H -10.182973230 2.915997183 -1.268575334
H -11.746580822 2.827320374 -0.464731183
H -12.480570348 1.013814467 0.393788979
H -11.423853053 -0.125590237 1.220005837
H -11.745704727 -0.310279190 -0.514233012
H -9.724511378 -1.312656487 0.277715860
H -7.465046070 -2.219587617 0.303037375
H 6.708026260 2.599281209 0.321671888
H 9.140816463 2.504057663 0.304255694
