58
0 1 Before single point calculation
C 11.405634729 -1.572445497 0.151682056
N 10.615573137 -0.343973974 0.085833374
C 11.353070070 0.918614767 0.074753890
C 9.208694608 -0.375114029 0.044625668
C 8.513299667 -1.587795949 -0.004416042
C 7.141088438 -1.620207407 -0.038791917
C 6.392869946 -0.439885376 -0.025556599
C 4.937907658 -0.447276666 -0.052348230
C 4.119886995 -1.542555839 -0.101902591
C 2.738114678 -1.231230419 -0.107982665
C 2.470888958 0.104328813 -0.063533649
C 1.135153489 0.688414573 -0.052341082
C 0.906899716 2.033389659 -0.018023252
S -0.776255597 2.352541010 -0.005871449
C -1.090812308 0.622306659 -0.044082126
C -2.409934534 0.057201729 -0.046468424
C -2.685662307 -1.282322346 -0.070946249
C -4.065880767 -1.586247013 -0.060336883
C -4.880846454 -0.485982435 -0.027085270
C -6.334228139 -0.472364774 -0.004243699
C -7.024218142 0.741873935 0.022720292
C -8.395471016 0.782632263 0.045890120
C -9.150420195 -0.394652267 0.043872270
N -10.557336069 -0.356703555 0.068105117
C -11.354125824 -1.579846376 0.150690205
C -11.289282721 0.908168564 0.017921322
C -8.459930575 -1.611041849 0.017284781
C -7.087847026 -1.649868328 -0.006431572
S -3.901004934 0.960971297 -0.011952060
N 0.001045109 -0.096128745 -0.067906469
S 3.962815014 1.002632025 -0.019193443
C 7.087470548 0.770597823 0.020982190
C 8.458902578 0.805206772 0.054848179
H 11.094178097 -2.171376936 1.005439085
H 12.465552595 -1.353276031 0.262890258
H 11.270313459 -2.152300685 -0.759364599
H 11.139738038 1.483098622 0.980554671
H 11.065465817 1.511695083 -0.791331638
H 12.426291855 0.746973111 0.023764618
H 9.065434994 -2.510449973 -0.018999351
H 6.632169398 -2.566918198 -0.075407728
H 4.487324600 -2.555939513 -0.131148537
H 1.957004037 -1.975005104 -0.141230018
H 1.671440009 2.784066994 0.000163971
H -1.908323010 -2.030341875 -0.094130754
H -4.437894905 -2.598219903 -0.075639384
H -6.457233619 1.656197807 0.026183800
H -8.898458251 1.732680703 0.072162447
H -12.412495386 -1.352930716 0.261665110
H -11.044559659 -2.170014599 1.011239930
H -11.223867331 -2.171637090 -0.753447050
H -11.098726118 1.485370362 0.920796676
H -12.361311484 0.739216003 -0.060682360
H -10.975772113 1.487283916 -0.848668956
H -9.016145596 -2.531348308 0.009807051
H -6.582833066 -2.599156305 -0.026985731
H 6.524288659 1.687201130 0.032314630
H 8.965677306 1.752702061 0.096098395
