53
0 1 Before single point calculation
C -1.700000891 -1.427216941 -2.798409004
N -1.667358676 -1.897285153 -1.414776122
C -2.952347786 -2.234149155 -0.804893629
C -0.471723600 -1.908458133 -0.672055931
C -0.480653039 -2.139047990 0.707475872
C 0.676049453 -2.076589671 1.443033954
C 1.901123618 -1.775083222 0.839134805
C 3.105235103 -1.648393451 1.655608361
C 4.128596969 -0.789615659 1.465952580
C 4.211612219 0.287571355 0.484917471
C 5.366535365 0.662821486 -0.186793665
O 5.125919247 1.702421379 -1.028528603
C 3.810751559 2.015969081 -0.891413825
C 3.200731419 1.186687122 0.038266200
C 1.811730566 1.214508168 0.449599944
C 0.817618131 1.722491437 -0.298062158
C -0.596181910 1.583491933 -0.000892780
C -1.060146352 1.110739799 1.230558713
C -2.398076222 0.896386771 1.447493406
C -3.341743013 1.142901071 0.445112956
N -4.706925047 0.870571696 0.649260000
C -5.681872852 1.007032683 -0.431997876
C -5.204859599 0.379796448 1.933058170
C -2.879588544 1.642900323 -0.776568488
C -1.542046508 1.859221346 -0.992690106
C 1.918802962 -1.598515490 -0.547797499
C 0.761576346 -1.657637610 -1.283503257
H -2.723255642 -1.273983173 -3.135573659
H -1.173629731 -0.478200000 -2.883139350
H -1.226327747 -2.157314509 -3.452028218
H -3.734019107 -2.312599479 -1.557871469
H -2.884168358 -3.190989158 -0.290779433
H -3.239060805 -1.465427605 -0.090341005
H -1.414542590 -2.337361260 1.202269214
H 0.646612287 -2.230144404 2.508216588
H 3.166731283 -2.323088137 2.495029751
H 4.988688839 -0.887203739 2.109439176
H 6.332012669 0.188489332 -0.070939428
H 3.323058885 2.815726505 -1.432126805
H 1.570667697 0.693814905 1.357143514
H 1.072305696 2.176746043 -1.239003108
H -0.357840119 0.903094054 2.017986596
H -2.726370168 0.514964111 2.397791340
H -6.661971245 0.647000247 -0.125911147
H -5.364837679 0.427004018 -1.296814241
H -5.775974786 2.052655789 -0.719182470
H -6.289907650 0.302545487 1.930230671
H -4.918562422 1.062617812 2.730513953
H -4.792253419 -0.605306969 2.142351765
H -3.584575609 1.852288921 -1.561025611
H -1.203781688 2.224335737 -1.947389581
H 2.856724799 -1.392474320 -1.033628030
H 0.799863593 -1.501980830 -2.346787855
