56
0 1 Before single point calculation
C -11.910903039 2.517821077 0.257408422
C -10.578823598 2.613120322 0.560111584
N -9.961754329 1.541158427 -0.046322111
C -8.561483854 1.203153383 -0.016307177
C -8.153110785 -0.123572935 -0.026590192
C -6.816830532 -0.442851720 0.004272672
C -5.838322836 0.550731103 0.046683604
C -4.427873313 0.187741154 0.075663852
C -3.360502336 1.039340497 0.142110418
C -2.103010404 0.389204906 0.146436576
C -2.181773240 -0.969663482 0.084060139
C -1.033155224 -1.866526844 0.063578793
C -1.138190927 -3.226163392 0.021571898
S 0.417181042 -3.940748890 -0.008753078
C 1.143100917 -2.339745286 0.031590262
C 2.559407303 -2.111573773 0.016614539
C 3.532578948 -3.070616250 -0.055253790
C 4.847184442 -2.553423265 -0.067631609
C 4.911033864 -1.187731521 -0.003345728
C 6.111484147 -0.364925331 -0.006952299
C 7.383621264 -0.913538301 -0.183937006
C 8.501134267 -0.112900438 -0.195137443
C 8.392532365 1.261587017 -0.028954302
N 9.564301152 2.099277793 -0.049662852
C 9.651402909 3.408932041 -0.468618442
C 10.958441995 3.783459147 -0.306993458
N 11.682186869 2.761165653 0.195980561
C 10.852072216 1.761213576 0.347216432
C 7.132037817 1.815052130 0.150309768
C 6.013624495 1.017014407 0.160006294
S 3.293454361 -0.535990157 0.082355766
N 0.257434254 -1.381376913 0.071840307
S -3.850307023 -1.459831779 0.025500422
C -6.258505517 1.882271816 0.055997119
C -7.595820833 2.199712990 0.025357738
C -10.982670852 0.854371581 -0.691110544
N -12.142148579 1.433677760 -0.512657171
H -12.687789906 3.198509641 0.578006609
H -10.093705461 3.361546735 1.165419626
H -8.898508717 -0.898933552 -0.049126873
H -6.507726133 -1.473169762 -0.002934737
H -3.459717764 2.112138743 0.185707315
H -1.158916542 0.910021370 0.190369027
H -2.061308484 -3.770187780 0.008040441
H 3.306481472 -4.124244253 -0.104470930
H 5.719622633 -3.184814357 -0.121920385
H 7.487811909 -1.974769426 -0.322285116
H 9.475348293 -0.543264113 -0.346512964
H 8.841659471 4.002793890 -0.860191163
H 11.377298927 4.752519810 -0.542226716
H 11.138897270 0.798681672 0.745073182
H 7.043309028 2.877967819 0.289929676
H 5.040044831 1.453783270 0.297463060
H -5.525780675 2.668737686 0.083924802
H -7.910429588 3.228522185 0.022900039
H -10.841990064 -0.040172611 -1.279985506
