56
0 1 Before single point calculation
C -9.573165048 0.908666666 -0.089040852
N -8.404586739 1.786563920 -0.037074814
C -8.658211547 3.226815416 -0.039106842
C -7.098732601 1.270259898 -0.005748812
C -5.985402747 2.116967735 0.037228200
C -4.710661065 1.610598125 0.060041371
C -4.477546760 0.231323289 0.041012701
C -3.114519635 -0.264440834 0.055272719
C -2.756920935 -1.559687498 0.023136469
C -1.392099103 -2.060736196 0.022506193
C -1.167584629 -3.438414941 0.006994458
C 0.111307344 -3.944354705 -0.001269411
C 1.210158228 -3.106362772 0.004497048
F 2.452301473 -3.646760401 -0.005623582
C 1.020837101 -1.714319055 0.020322040
C 2.133003645 -0.783623420 0.024706290
C 3.430938615 -1.124373262 -0.004646959
C 4.552481603 -0.207410052 -0.004133990
C 5.854737495 -0.715928658 -0.039296958
C 6.943423155 0.118177925 -0.041216360
C 6.788322640 1.508562010 -0.006976948
N 7.902592176 2.363732915 -0.009727299
C 9.264122723 1.846456912 -0.141792702
C 7.755622282 3.814295301 0.102555964
C 5.484679934 2.016872932 0.029030494
C 4.395691477 1.182060248 0.029831944
C -0.281769942 -1.220160390 0.029614383
C -5.590518808 -0.615730462 0.002141062
C -6.865638482 -0.109525537 -0.020581892
H -10.497630433 1.482681266 -0.100549291
H -9.589822955 0.257222264 0.782929320
H -9.541289542 0.298292095 -0.989828290
H -8.195632151 3.685779660 -0.911008112
H -9.724942360 3.439362950 -0.069878202
H -8.248182680 3.679327043 0.861962781
H -6.133768538 3.181865108 0.051184742
H -3.868035067 2.280118377 0.091101768
H -2.342329664 0.481590671 0.090313840
H -3.529521953 -2.305262440 -0.009870399
H -2.010919426 -4.107554047 0.000797491
H 0.280938195 -5.006375248 -0.013451103
H 1.876016269 0.259367349 0.051068283
H 3.676579911 -2.169060534 -0.031946268
H 5.995828069 -1.783006426 -0.064819060
H 7.933456338 -0.301328146 -0.063088119
H 9.523118656 1.250217218 0.731178051
H 9.343422394 1.226966524 -1.033186829
H 9.985849955 2.656082259 -0.229622040
H 8.723987266 4.301482050 0.196651857
H 7.258044022 4.208348817 -0.781625082
H 7.167500466 4.063425583 0.983824191
H 5.336278312 3.081767277 0.049386703
H 3.407534125 1.605072825 0.056527653
H -0.421617784 -0.155514859 0.038503321
H -5.448405787 -1.681320548 -0.011057603
H -7.702790151 -0.783670165 -0.052102554
