61
rdkit_etkdg_mmff_conf_0
C 13.25352263 0.46617915 1.21543731
C 12.03074523 1.00711380 0.89605513
N 11.11832101 -0.02534698 0.97225774
C 9.71480781 0.03733078 0.72874624
C 8.91568480 -1.10732316 0.84728187
C 7.53644197 -1.03827148 0.60722891
C 6.91862323 0.16645733 0.24277485
C 5.47040480 0.23413101 -0.00903052
C 4.54628694 -0.22240232 0.94162208
C 3.16499427 -0.15560698 0.70618147
C 2.65956862 0.36964950 -0.49232213
C 1.21984464 0.46976043 -0.79791225
N 0.72818864 1.02876690 -1.88757001
N -0.64819652 0.99448866 -1.93433920
C -1.18346656 0.40293259 -0.88323492
C -2.63360318 0.23584594 -0.67197295
C -3.18367621 -0.51343476 0.37857061
C -4.57275005 -0.63580812 0.53002829
C -5.46045169 -0.01734566 -0.36219443
C -6.91717191 -0.14753072 -0.19924210
C -7.54196510 0.16965290 1.01537637
C -8.92883565 0.04722143 1.17639542
C -9.72918090 -0.40024249 0.11724457
N -11.14045949 -0.52889141 0.27476861
C -12.05538509 -0.95244688 -0.66729996
C -13.28591870 -0.91269796 -0.05560240
N -13.17230691 -0.47963146 1.23198955
C -11.88721328 -0.25753597 1.40324141
C -9.11556316 -0.71968507 -1.10094621
C -7.72814051 -0.59275192 -1.25273698
C -4.91199675 0.72771595 -1.41446696
C -3.52478509 0.85110268 -1.56600794
S -0.00410291 -0.14669906 0.24326022
C 3.58759441 0.82578409 -1.44250567
C 4.96678679 0.75969156 -1.20616106
C 7.72829406 1.30512970 0.12613751
C 9.10778615 1.24644619 0.36576584
C 11.85856187 -1.13193952 1.33557378
N 13.13745415 -0.86451658 1.48762897
H 14.21022998 0.97062522 1.26203762
H 11.76373201 2.01769259 0.63044641
H 9.32148245 -2.07653170 1.12085388
H 6.94449120 -1.94807950 0.69573208
H 4.89558281 -0.62562457 1.89088693
H 2.50464220 -0.51982765 1.48914171
H -2.55296505 -1.02609893 1.10054530
H -4.95761922 -1.23676576 1.35261126
H -6.94876379 0.53198611 1.85379533
H -9.33917971 0.31560918 2.14510615
H -11.78457774 -1.24274094 -1.66998063
H -14.24656499 -1.17460773 -0.48035111
H -11.45746251 0.09932727 2.32787184
H -9.67833376 -1.07394702 -1.95918287
H -7.28055694 -0.85959429 -2.20913833
H -5.56200153 1.23429451 -2.12585988
H -3.14335411 1.44371354 -2.39753099
H 3.24210332 1.24038942 -2.38951887
H 5.64654974 1.11566976 -1.97846204
H 7.28529219 2.26257005 -0.14429087
H 9.66967042 2.16932954 0.25961142
H 11.42886065 -2.11268118 1.47901068
