51
rdkit_etkdg_mmff_conf_0
C -4.93465695 -2.70458012 -1.88291017
N -3.64173117 -2.07161956 -1.75087636
C -2.81145515 -1.76740958 -2.79738358
C -1.68283908 -1.17366303 -2.28030286
C -1.83224542 -1.11596117 -0.86824122
C -1.02229140 -0.62797683 0.17550700
C -1.46609994 -0.71259850 1.50325286
C -0.62092384 -0.24200945 2.60567525
C -0.13049776 0.99453898 2.79952851
C -0.35314298 2.18749736 2.04017202
C -1.52322740 2.56135550 1.32956670
C -1.28202608 3.81416254 0.82992573
O -0.05095878 4.23988159 1.19447803
C 0.55968024 3.24115474 1.92357949
C 1.88127630 3.40327030 2.42805560
C 2.92053226 2.62485742 2.08306376
C 2.91055654 1.51746034 1.11756187
C 3.25346938 0.23199379 1.54246966
C 3.24807298 -0.85232076 0.65696878
C 2.90078141 -0.60826081 -0.68044791
C 2.57857850 0.67110686 -1.13997712
C 2.28712046 0.56155433 -2.52694373
C 2.42378110 -0.76101843 -2.88128173
N 2.78418629 -1.46006883 -1.75962031
C 2.99434469 -2.88945560 -1.71237913
C 2.58609892 1.74602626 -0.22897359
C -2.70141744 -1.29973051 1.78655932
C -3.52559228 -1.79098694 0.76648140
C -3.06835459 -1.68685613 -0.55612085
H -5.69302875 -2.02988652 -1.47764711
H -4.91710349 -3.64619951 -1.32831218
H -5.14090440 -2.90119035 -2.93810017
H -3.08464231 -1.99133853 -3.82001324
H -0.83644658 -0.81393887 -2.85058189
H -0.05863867 -0.18414733 -0.05602537
H -0.35070441 -1.02032687 3.31664416
H 0.53423238 1.10787457 3.65524725
H -2.43725383 1.99815836 1.20664269
H -1.86048840 4.50663435 0.23562377
H 2.04313118 4.23929869 3.10138242
H 3.89337609 2.82469278 2.52679770
H 3.51264912 0.05409190 2.58377452
H 3.49714050 -1.84883479 1.00594340
H 1.99929703 1.36693927 -3.18953790
H 2.28473398 -1.25437058 -3.83414371
H 2.82418987 -3.31833580 -2.70323439
H 4.02474044 -3.07728867 -1.40010051
H 2.28774529 -3.31937861 -0.99773068
H 2.32594321 2.74341698 -0.57313369
H -3.04339021 -1.37560454 2.81676434
H -4.48559684 -2.23785190 1.00235318
