86
rdkit_etkdg_mmff_conf_2
C -14.22355055 2.11298929 -2.37976651
C -13.57663460 0.80939920 -1.88823299
C -13.69629898 -0.24458780 -2.99413350
C -14.27861416 0.36887116 -0.59875716
O -12.19152307 1.15630193 -1.63742541
C -11.32195785 0.21836575 -1.18237543
O -11.54144693 -0.95954384 -0.94979186
N -10.04800092 0.79699927 -0.98302572
C -9.70740701 2.12418436 -1.21998465
C -8.38891553 2.32419372 -0.89431525
C -7.87050295 1.08856481 -0.43898823
C -6.60027940 0.69046088 0.02971067
C -6.36447165 -0.63597426 0.43377867
C -5.04491849 -1.04332506 0.94327957
C -4.91376155 -1.65004810 2.20147000
C -3.65964973 -2.03031527 2.69804942
C -2.49757074 -1.81799366 1.94575704
C -1.17167969 -2.19458899 2.43281123
C -0.93349027 -3.08480321 3.45968984
S 0.74959810 -3.24691829 3.72394186
C 1.06363143 -2.12536317 2.45249258
C 2.43652150 -1.73421335 2.07010106
C 3.57572229 -2.06707198 2.81778600
C 4.85328374 -1.65438354 2.41218295
C 5.03895820 -0.89532100 1.24782580
C 6.38147974 -0.44826437 0.83817389
C 7.44075712 -1.35541799 0.71594645
C 8.72995691 -0.94888266 0.34518726
C 8.95930565 0.41512663 0.09122042
C 7.92281109 1.34768290 0.19738196
C 8.45778436 2.61946167 -0.11721579
C 9.78923500 2.44806862 -0.40358716
N 10.12181088 1.10386932 -0.27846283
C 11.40323590 0.54418800 -0.48335116
O 11.61603242 -0.65048262 -0.35498861
O 12.28506331 1.51871713 -0.82108810
C 13.67479337 1.19547466 -1.07737290
C 14.33490306 2.54270098 -1.40804246
C 14.34863635 0.61106558 0.16933090
C 13.81285457 0.26898037 -2.28994442
C 6.63439831 0.90961335 0.57142787
C 3.90151671 -0.56552690 0.49769759
C 2.62485460 -0.97629699 0.90325205
N -0.02319323 -1.66905218 1.85677284
C -2.62370324 -1.20864922 0.69025653
C -3.87821869 -0.82836805 0.19591908
C -7.41804669 -1.55369381 0.34996537
C -8.68779742 -1.18606859 -0.11389474
C -8.90315405 0.14773860 -0.50370702
H -15.28614060 1.97900276 -2.60870069
H -13.71805149 2.48222689 -3.28001348
H -14.12899429 2.90368517 -1.62607216
H -14.74015902 -0.39062004 -3.29264012
H -13.11940141 0.05177105 -3.87767238
H -13.30749829 -1.21679470 -2.67622020
H -15.35744768 0.25565241 -0.75014859
H -13.89717498 -0.58852173 -0.23142379
H -14.11387529 1.09877176 0.20213652
H -10.44387305 2.82007668 -1.60004847
H -7.85338364 3.26190903 -0.97220934
H -5.80483829 1.42932305 0.09327515
H -5.79457963 -1.81616286 2.81982626
H -3.61736532 -2.47497855 3.68817031
H -1.63395232 -3.64770684 4.05771937
H 3.50214711 -2.64157220 3.73743815
H 5.70914851 -1.92028145 3.03064682
H 7.27084344 -2.41493677 0.90315377
H 9.52319742 -1.68709489 0.26215873
H 7.92495102 3.56163640 -0.13073598
H 10.54009534 3.17423230 -0.68610592
H 13.85171640 3.01041084 -2.27360515
H 14.22396830 3.24593952 -0.57419517
H 15.40196688 2.42962077 -1.62559775
H 13.97467096 -0.39006384 0.40438247
H 15.43290987 0.53253997 0.03672817
H 14.15008017 1.23575133 1.04780064
H 14.86190227 0.14643621 -2.58004812
H 13.25762693 0.66548420 -3.14790366
H 13.41009112 -0.72861300 -2.08861143
H 5.83655314 1.64217510 0.66876019
H 3.99810929 0.01191809 -0.42001362
H 1.76631280 -0.69574956 0.29348273
H -1.74069115 -1.02526416 0.08039326
H -3.93523477 -0.36747549 -0.78816471
H -7.25780895 -2.59034894 0.64448933
H -9.47817802 -1.93024176 -0.16286877
