51
0 1 Before single point calculation
C 6.084271724 2.838386113 -2.318140423
N 4.744255453 2.364989525 -2.052701083
C 3.598805079 2.992136151 -2.466396451
C 2.528525477 2.246966579 -2.027046301
C 3.042108358 1.126747448 -1.318201090
C 2.443368186 0.036082761 -0.654481998
C 3.245312566 -0.930936927 -0.025579039
C 2.660675951 -2.097751945 0.652877044
C 1.564267816 -2.034321771 1.427542954
C 0.947471822 -3.144624532 2.102179098
C 1.640569412 -4.322336732 2.530447233
C 0.823307131 -5.198100146 3.204961502
S -0.769501570 -4.610261951 3.337992107
C -0.402179848 -3.174987312 2.446522076
C -1.473132922 -2.260486241 2.207704577
C -1.679494805 -1.724671580 0.993620830
C -2.763398280 -0.779178729 0.690375629
C -4.058168511 -0.948319782 1.191034791
C -5.088879528 -0.054509921 0.874187605
C -4.789744236 1.020134232 0.024392583
C -3.511543596 1.209518315 -0.505506353
C -3.559701036 2.374447156 -1.318994672
C -4.843817332 2.867054740 -1.271031149
N -5.578439706 2.043912003 -0.459082272
C -6.980198432 2.224297634 -0.154608879
C -2.491360096 0.294834871 -0.172685693
C 4.637353255 -0.816469898 -0.090111983
C 5.256181273 0.256480694 -0.743802189
C 4.435317593 1.218654224 -1.349499640
H 6.609553948 2.078820785 -2.902710675
H 6.038077927 3.773243260 -2.882500952
H 6.586798201 3.008530119 -1.362563844
H 3.631856197 3.911376763 -3.036342082
H 1.485827081 2.481556519 -2.195036281
H 1.360830328 -0.046162062 -0.646761037
H 3.177046084 -3.039584035 0.490208638
H 1.087218101 -1.065467390 1.568844098
H 2.694948605 -4.514229683 2.375214748
H 1.091010389 -6.151045666 3.639790252
H -2.137979871 -2.033395337 3.037179822
H -1.026946548 -1.965625569 0.157225051
H -4.291368105 -1.794950657 1.833584228
H -6.086481137 -0.202493612 1.274401034
H -2.740038453 2.804786174 -1.878839352
H -5.286093137 3.731558372 -1.748451035
H -7.086904821 2.343020547 0.926669247
H -7.525794339 1.343914790 -0.503803810
H -7.354174195 3.116745450 -0.662950301
H -1.495880720 0.437585565 -0.583263554
H 5.268082230 -1.566798826 0.383157912
H 6.338180152 0.330929673 -0.775232898
