86
0 1 Before single point calculation
C -14.223551218 2.112989226 -2.379766554
C -13.576634177 0.809399194 -1.888233018
C -13.696298791 -0.244587813 -2.994133606
C -14.278613957 0.368871162 -0.598757141
O -12.191522760 1.156302010 -1.637425490
C -11.321957614 0.218365743 -1.182375410
O -11.541446531 -0.959543859 -0.949791883
N -10.048001187 0.796999316 -0.983025752
C -9.707407349 2.124184411 -1.219984641
C -8.388915448 2.324193853 -0.894315257
C -7.870503197 1.088564793 -0.438988243
C -6.600279256 0.690460854 0.029710671
C -6.364471566 -0.635974250 0.433778673
C -5.044918863 -1.043325061 0.943279589
C -4.913761566 -1.650048114 2.201469974
C -3.659649739 -2.030315254 2.698049253
C -2.497570728 -1.817993683 1.945757124
C -1.171679714 -2.194588897 2.432811399
C -0.933490268 -3.084803076 3.459690007
S 0.749598114 -3.246918151 3.723941750
C 1.063631427 -2.125363051 2.452492488
C 2.436521680 -1.734213364 2.070101096
C 3.575722311 -2.067071984 2.817786034
C 4.853283795 -1.654383545 2.412183058
C 5.038958292 -0.895321050 1.247825748
C 6.381479709 -0.448264354 0.838173864
C 7.440757663 -1.355417946 0.715946447
C 8.729956417 -0.948882670 0.345187247
C 8.959305434 0.415126623 0.091220419
C 7.922810983 1.347682981 0.197381962
C 8.457784750 2.619461914 -0.117215793
C 9.789235380 2.448068615 -0.403587163
N 10.121811137 1.103869321 -0.278462824
C 11.403235562 0.544188025 -0.483351187
O 11.616032652 -0.650482609 -0.354988617
O 12.285064013 1.518717212 -0.821088066
C 13.674793094 1.195474687 -1.077372888
C 14.334903027 2.542700948 -1.408042408
C 14.348636918 0.611065549 0.169330916
C 13.812854682 0.268980370 -2.289944413
C 6.634398493 0.909613413 0.571427889
C 3.901516662 -0.565526931 0.497697612
C 2.624854739 -0.976297021 0.903252077
N -0.023193230 -1.669052197 1.856772849
C -2.623703351 -1.208649286 0.690256528
C -3.878218656 -0.828368078 0.195919087
C -7.418046831 -1.553693745 0.349965362
C -8.687797903 -1.186068531 -0.113894750
C -8.903154642 0.147738606 -0.503707073
H -15.286140769 1.979002789 -2.608700738
H -13.718051772 2.482226963 -3.280013679
H -14.128994584 2.903685179 -1.626072219
H -14.740159299 -0.390620044 -3.292640340
H -13.119401683 0.051771053 -3.877672611
H -13.307498561 -1.216794795 -2.676220320
H -15.357447592 0.255652401 -0.750148638
H -13.897174738 -0.588521761 -0.231423796
H -14.113875898 1.098771849 0.202136516
H -10.443873760 2.820076698 -1.600048403
H -7.853383524 3.261909157 -0.972209379
H -5.804838465 1.429323151 0.093275154
H -5.794579681 -1.816162893 2.819826385
H -3.617365312 -2.474978492 3.688170248
H -1.633952401 -3.647706896 4.057719361
H 3.502147281 -2.641572196 3.737438197
H 5.709148358 -1.920281498 3.030646963
H 7.270843783 -2.414936751 0.903153793
H 9.523197384 -1.687094899 0.262158733
H 7.924951258 3.561636417 -0.130735983
H 10.540095782 3.174232337 -0.686105930
H 13.851716739 3.010410745 -2.273605200
H 14.223969078 3.245939610 -0.574195143
H 15.401966918 2.429620669 -1.625597710
H 13.974671753 -0.390063874 0.404382480
H 15.432909807 0.532539968 0.036728170
H 14.150080401 1.235751314 1.047800662
H 14.861902113 0.146436214 -2.580048008
H 13.257626782 0.665484213 -3.147903831
H 13.410091444 -0.728613039 -2.088611368
H 5.836552984 1.642175123 0.668760168
H 3.998109358 0.011918092 -0.420013619
H 1.766312814 -0.695749593 0.293482722
H -1.740691215 -1.025264192 0.080393259
H -3.935234945 -0.367475486 -0.788164754
H -7.257809354 -2.590348931 0.644489361
H -9.478178442 -1.930241773 -0.162868773
