99
0 1 Before single point calculation
C 1.813044456 -2.403332536 3.529671081
O 1.040526769 -1.421453693 2.850518962
C 1.707534622 -0.595710744 1.986920317
C 3.078868495 -0.620641903 1.722966198
C 3.659690869 0.281036162 0.812548353
C 5.106678982 0.252299012 0.538188279
C 6.041592903 0.333121329 1.584708675
C 7.415387763 0.311227988 1.327735178
C 7.885571921 0.207467867 0.012125530
N 9.298438778 0.187619325 -0.254169670
C 9.972091840 -1.094751706 -0.310090384
C 9.246919781 -2.298396756 -0.118409423
C 9.854769871 -3.556805786 -0.165978583
C 11.214516940 -3.654970254 -0.405217381
C 11.956066314 -2.493432494 -0.595787390
C 11.351046372 -1.220596166 -0.549447115
S 12.446412757 0.147098583 -0.807694949
C 11.359829522 1.541563167 -0.704852383
C 11.972549608 2.797482191 -0.893094919
C 11.236735221 3.977009915 -0.838788859
C 9.875586199 3.914503400 -0.594736808
C 9.260230764 2.673003095 -0.406827539
C 9.979956504 1.451586599 -0.454861399
C 6.964152681 0.126072182 -1.040310900
C 5.591169318 0.147750592 -0.777195090
C 2.824617653 1.210961651 0.170565810
C 1.447318162 1.247759511 0.425241483
C 0.596758740 2.215198313 -0.246437575
C 0.907281493 3.558759840 -0.325482218
O -0.064847152 4.243418586 -0.978074001
C -1.017815875 3.340123298 -1.318894496
C -0.673937566 2.073397175 -0.888683347
C -1.499890896 0.904332559 -1.138673637
C -0.932766077 -0.265445144 -1.654692146
C -1.716056357 -1.397847085 -1.891873655
O -1.030712026 -2.467070428 -2.402014862
C -1.777082695 -3.649143166 -2.661637838
C -3.083196987 -1.358674156 -1.608212458
C -3.681647734 -0.195785414 -1.089761853
C -5.121284425 -0.157751603 -0.788425664
C -5.693582037 -1.071914204 0.112092812
C -7.058514011 -1.029538306 0.410223478
C -7.882037264 -0.068007425 -0.190338384
N -9.284334465 -0.014816661 0.123200131
C -10.201877896 -0.797778831 -0.680773033
C -9.722336282 -1.586623113 -1.757742632
C -10.570053570 -2.357644411 -2.559380303
C -11.931729460 -2.365975888 -2.310553324
C -12.435621050 -1.602745573 -1.261814368
C -11.587763465 -0.822510016 -0.448700572
S -12.398498060 0.084214353 0.838622888
C -11.057176227 0.941085505 1.615345487
C -11.418870013 1.776931675 2.691501254
C -10.465150341 2.506762402 3.394492631
C -9.133724943 2.407703168 3.029170320
C -8.765927766 1.580571324 1.963588624
C -9.712424706 0.825724529 1.224110890
C -7.323725370 0.844486879 -1.095536204
C -5.957985936 0.798291757 -1.389007666
C -2.872824549 0.930118995 -0.861044169
C 0.900203157 0.339602775 1.336493599
H 2.567395609 -1.937196404 4.172462504
H 2.272972353 -3.101867993 2.822643917
H 1.136858996 -2.976106549 4.171654287
H 3.724161278 -1.346134045 2.209115866
H 5.704094161 0.429796663 2.614945182
H 8.122493907 0.379525444 2.150854070
H 8.177089834 -2.283655811 0.073097792
H 9.259314297 -4.453217979 -0.014817819
H 11.699013333 -4.626517137 -0.444699889
H 13.024827890 -2.585072430 -0.782365044
H 13.042211502 2.861334893 -1.086110871
H 11.726613337 4.935367690 -0.986193457
H 9.284191141 4.825504636 -0.549616051
H 8.189456089 2.685986300 -0.219601441
H 7.318875561 0.044257453 -2.064948868
H 4.897094575 0.070673865 -1.612482661
H 3.259124175 1.913827366 -0.538458904
H 1.738345795 4.156661010 0.023147012
H -1.861957375 3.742991506 -1.861641456
H 0.130322641 -0.306104620 -1.883126588
H -1.087034403 -4.400963183 -3.057064037
H -2.214544018 -4.050582926 -1.741535137
H -2.545703692 -3.471229372 -3.420965975
H -3.715145479 -2.222820739 -1.791169472
H -5.071930935 -1.817706404 0.603995035
H -7.482020400 -1.739318532 1.116820228
H -8.663444899 -1.618266222 -2.001491822
H -10.158579853 -2.946515399 -3.375153451
H -12.600519592 -2.961311100 -2.926192631
H -13.508659137 -1.618397561 -1.077438494
H -12.462082535 1.863131095 2.990642350
H -10.763512993 3.145762042 4.220935862
H -8.374154063 2.969091990 3.566978525
H -7.706225390 1.541102536 1.723762430
H -7.955676638 1.591512664 -1.569834372
H -5.549503860 1.514928709 -2.099269718
H -3.320488638 1.827773668 -0.436615792
H -0.165429715 0.354832928 1.555249746
