83
0 1 Before single point calculation
C -1.433041128 -3.726898569 -0.409500738
C -1.330185063 -4.771367953 0.431402437
C -0.366872540 -5.821607398 0.305452407
C -0.665133472 -7.202895490 0.431508605
C 0.508758368 -7.865127025 0.185678439
O 1.506474473 -6.984225136 -0.057037500
C 1.005444636 -5.701374029 0.053955920
C 1.865267332 -4.574258304 -0.100792625
C 1.738238428 -3.474420355 0.657295619
C 2.570998648 -2.274162853 0.516370858
C 3.946998380 -2.337539910 0.268243404
C 4.704561207 -1.166562308 0.156303458
C 4.089564336 0.083251354 0.295894694
N 4.854309774 1.278390267 0.161673542
C 4.474225574 2.460550438 -0.485245501
C 3.275832801 2.660740043 -1.312298302
C 2.888261425 1.738689848 -2.296587036
C 1.743703799 1.958506418 -3.066887297
C 0.986128608 3.113445461 -2.877557276
C 1.378938004 4.053251330 -1.925484696
C 2.519177358 3.830683718 -1.150062865
N 5.385699426 3.402616187 -0.315040778
C 6.408652768 2.824840966 0.379079196
C 7.621301758 3.398991194 0.792611022
C 8.519454533 2.627917033 1.536632486
C 8.210528281 1.312064896 1.874354415
C 7.004843131 0.725734506 1.470788132
C 6.123691433 1.499613583 0.693147678
C 2.716984703 0.153428867 0.562459591
C 1.967644346 -1.020220151 0.678741702
C -2.377605336 -2.610015132 -0.270459284
C -2.008179486 -1.361168830 -0.788456575
C -2.864804197 -0.259543066 -0.692129773
C -4.116107071 -0.397204000 -0.081448864
N -4.988359294 0.724403963 0.040878693
C -4.638614407 2.047235712 0.342731873
C -3.307573058 2.540170065 0.726471566
C -2.805919142 3.696949360 0.112994092
C -1.546400611 4.194032293 0.453943039
C -0.779472506 3.545198039 1.420736063
C -1.278205939 2.411799767 2.061047321
C -2.539825380 1.916192468 1.721384081
N -5.698905724 2.836014703 0.296003323
C -6.764739751 2.031716324 0.016828223
C -8.116665053 2.386041782 -0.123780722
C -9.047518458 1.397966564 -0.457407076
C -8.636361670 0.083054172 -0.663663327
C -7.291884180 -0.286452297 -0.528888070
C -6.369448045 0.708238166 -0.153659625
C -4.502951481 -1.646094586 0.417996703
C -3.639354223 -2.743360900 0.320055958
H -0.753228531 -3.653402771 -1.256757016
H -2.015796486 -4.859032408 1.270360831
H -1.622406727 -7.660567545 0.638026145
H 0.786513939 -8.908610046 0.143160574
H 2.649256443 -4.660897789 -0.844925746
H 0.967740465 -3.410884328 1.421615564
H 4.446533722 -3.297827768 0.156553187
H 5.760757186 -1.256349501 -0.085876420
H 3.476874782 0.841431777 -2.479441729
H 1.450388908 1.233553382 -3.822710552
H 0.099058320 3.287985584 -3.480467980
H 0.802080765 4.966542725 -1.790867936
H 2.823931564 4.577759149 -0.417532476
H 7.844353089 4.429842507 0.539893534
H 9.459194040 3.066430325 1.864900442
H 8.910988017 0.734151587 2.474371635
H 6.768067497 -0.287479349 1.776382854
H 2.210269777 1.104751219 0.711558720
H 0.902732526 -0.943561948 0.892462072
H -1.041089531 -1.227318022 -1.271255219
H -2.541242725 0.682680532 -1.129537854
H -3.402972731 4.216269499 -0.635051852
H -1.170244580 5.091949896 -0.029840870
H 0.200978125 3.933401757 1.685329841
H -0.689311358 1.918339555 2.830519683
H -2.920602987 1.044276287 2.248342794
H -8.422175748 3.417706107 0.017952120
H -10.095968369 1.664208697 -0.572058149
H -9.370974960 -0.669433514 -0.944470278
H -6.990215987 -1.308494028 -0.732466644
H -5.452625777 -1.784367123 0.929670980
H -3.972421774 -3.700286442 0.714083548
