51
0 1 Before single point calculation
C 6.780961629 -1.650059721 2.600469942
N 6.630688213 -1.233390376 1.223788032
C 7.528294943 -1.502896919 0.224485141
C 7.041874776 -0.951143117 -0.938573925
C 5.802304553 -0.324223747 -0.635766581
C 4.858754339 0.390053244 -1.402552434
C 3.695343523 0.891902464 -0.797193864
C 2.746649787 1.654414708 -1.623439520
C 1.410709676 1.535387609 -1.529109984
C 0.449608207 2.250809081 -2.317121509
C 0.715915158 3.179948651 -3.360133932
C -0.503774761 3.601826747 -3.817900359
O -1.497741285 2.999615757 -3.129806626
C -0.942011498 2.152747312 -2.188050740
C -1.736423534 1.370157756 -1.295986594
C -3.077248275 1.432589202 -1.328471102
C -3.950629933 0.665723360 -0.428116326
C -5.092164377 1.286160054 0.088728316
C -5.980057864 0.605907013 0.931269815
C -5.698398033 -0.733498868 1.238205236
C -4.574730163 -1.388419734 0.728423854
C -4.601201741 -2.721172142 1.224270363
C -5.719373329 -2.852091491 2.016070392
N -6.373367255 -1.648394334 2.020378571
C -7.599728941 -1.379653995 2.737571661
C -3.695938521 -0.680745087 -0.118199586
C 3.497602289 0.703010932 0.574654576
C 4.419577163 -0.003072001 1.357597711
C 5.564837027 -0.510844549 0.727915091
H 7.725844658 -2.186829456 2.720543584
H 5.946188435 -2.308395639 2.854557778
H 6.779240225 -0.760054914 3.235612949
H 8.435564450 -2.061143711 0.414930688
H 7.524825387 -0.992599708 -1.906194216
H 5.038745324 0.536552982 -2.463845128
H 3.201975665 2.322085876 -2.348864037
H 1.017782441 0.827915711 -0.803047888
H 1.673776850 3.506178022 -3.738324637
H -0.818166763 4.291958056 -4.587905897
H -1.234873958 0.732277522 -0.576951864
H -3.587144090 2.091596448 -2.028109878
H -5.303848181 2.325396211 -0.156431768
H -6.857744043 1.108224686 1.325057311
H -3.879640291 -3.500664330 1.018371950
H -6.096209016 -3.702447408 2.569254282
H -8.365562685 -1.084346065 2.015710189
H -7.412347675 -0.575708375 3.453889414
H -7.919633627 -2.280435053 3.268156124
H -2.834868362 -1.195311303 -0.534010176
H 2.618844206 1.117557666 1.064403056
H 4.246915394 -0.139707498 2.419792363
