83
0 1 Before single point calculation
C -14.067141103 -0.522338684 1.589674051
C -13.853978637 0.994593820 1.651781504
C -15.089141641 1.690250807 1.061475886
C -13.654890206 1.484920202 3.090262769
O -12.757186076 1.406345984 0.797182572
C -11.496262059 0.970219431 1.044812807
O -11.119122566 0.234487209 1.942607145
N -10.604596723 1.498554423 0.083871623
C -10.939752316 2.354735283 -0.959252669
C -9.813305773 2.660077421 -1.681990866
C -8.726702352 1.975117517 -1.086972708
C -7.349569147 1.901067979 -1.390215450
C -6.478567731 1.114542054 -0.613208032
C -5.046321825 1.020538467 -0.937916601
C -4.594395860 0.766839285 -2.237722420
C -3.227998345 0.643887298 -2.500229039
C -2.322091428 0.772933528 -1.451148300
C -0.881225946 0.585896001 -1.675321118
N -0.316739756 0.407494577 -2.857032896
N 1.041829115 0.187250164 -2.768183745
C 1.479176888 0.201433142 -1.520898995
C 2.865384811 -0.070433922 -1.112776618
C 3.808439447 -0.496941060 -2.041996808
C 5.102988888 -0.794393995 -1.609785491
C 5.449544307 -0.660789903 -0.260809218
C 6.792856025 -0.997939923 0.236320207
C 7.943260926 -0.526453798 -0.404387716
C 9.232392560 -0.850395849 0.043016350
C 9.375916617 -1.675701507 1.173848124
C 8.243027045 -2.157235025 1.842597630
C 8.683809049 -2.948672075 2.928579686
C 10.054317546 -2.943102113 2.908490830
N 10.505760549 -2.176388237 1.839932633
C 11.879184987 -2.002260297 1.555300591
O 12.729467981 -2.539375978 2.249724308
O 12.064905913 -1.212603066 0.473464813
C 13.404185881 -0.930483866 -0.005304382
C 14.102542183 -2.211449931 -0.475515762
C 14.229176188 -0.181023904 1.047066693
C 13.201178239 -0.007427891 -1.215867729
C 6.957546141 -1.816036222 1.367821294
C 4.438419250 -0.207191706 0.585367367
N 3.171072896 0.083826417 0.199083558
S 0.241693635 0.533722897 -0.370433756
N -2.723882938 1.039679315 -0.184265384
C -4.056761764 1.157589153 0.035801439
C -7.016104175 0.410882283 0.472649372
C -8.376742478 0.471148095 0.800308579
C -9.226594994 1.260044137 0.005628699
H -14.987891160 -0.815814404 2.105311161
H -14.123514956 -0.867159545 0.551074463
H -13.242069040 -1.068117626 2.057094676
H -15.239756209 1.393592905 0.018064682
H -14.959208150 2.778271952 1.057394427
H -15.998586244 1.452684367 1.623138867
H -13.403854822 2.550862858 3.106952975
H -12.834949553 0.960249945 3.588835214
H -14.556414632 1.329218381 3.692669316
H -11.964080358 2.676673002 -1.095120866
H -9.777584737 3.306291467 -2.550232282
H -6.968530125 2.469857680 -2.235129463
H -5.301487873 0.635513051 -3.054015370
H -2.884918539 0.426727305 -3.508140656
H 3.542391862 -0.619579777 -3.088341771
H 5.830183636 -1.154568620 -2.333531374
H 7.854248516 0.121010533 -1.275869224
H 10.086102213 -0.454827619 -0.496693207
H 8.064756455 -3.469161265 3.647742474
H 10.770610570 -3.424874083 3.562514783
H 14.327399702 -2.883338692 0.358363706
H 15.048561712 -1.986949587 -0.979307713
H 13.463290969 -2.772211962 -1.167040476
H 14.465411833 -0.812355887 1.908295506
H 15.178807084 0.171812342 0.631316654
H 13.675239216 0.681978672 1.434104452
H 14.153286019 0.272899486 -1.678584267
H 12.677167765 0.909571337 -0.921463777
H 12.573981398 -0.490301244 -1.974424742
H 6.090562849 -2.218128385 1.887103961
H 4.622887603 -0.054794022 1.646703966
H -4.316034000 1.375318942 1.070082278
H -6.374593081 -0.222790468 1.085234776
H -8.750417462 -0.096997648 1.648688174
