73
0 1 Before single point calculation
C 10.937052370 -0.063856795 -0.853742204
C 9.869336456 -1.053910298 -0.363015845
C 10.421869457 -1.809259359 0.850705585
C 9.513912599 -2.002105996 -1.514030788
O 8.739676221 -0.223657084 0.005601823
C 7.599653242 -0.790720050 0.477755392
O 7.369301460 -1.977032965 0.655004450
N 6.644808676 0.210766153 0.765868692
C 6.835939081 1.581949179 0.638227632
C 5.691986798 2.239935366 1.016742268
C 4.739667060 1.261904324 1.390915795
C 3.407806390 1.340447631 1.850363506
C 2.689262571 0.168888989 2.125727165
C 1.314454852 0.221150015 2.638469025
C 0.223104826 0.764593851 2.072936039
C 0.171786494 1.381938603 0.789644677
N 1.046414291 1.325226499 -0.195347651
N 0.672471268 2.057299696 -1.301268646
C -0.509835192 2.625043483 -1.170598222
C -1.115799421 3.469937688 -2.141782000
C -2.394187038 3.429775872 -2.552840884
C -3.447735809 2.494489258 -2.141799916
C -4.623134887 2.994377106 -1.582990172
C -5.660389361 2.140631117 -1.191434484
C -5.501977249 0.754469497 -1.378684033
C -4.334275538 0.234252856 -1.948032648
C -4.475852607 -1.172491338 -2.003784252
C -5.704330848 -1.485226280 -1.477529165
N -6.354536271 -0.319145137 -1.089686406
C -7.642412809 -0.239066314 -0.512673510
O -8.147163335 0.828101238 -0.201638098
O -8.171409855 -1.482475112 -0.383621949
C -9.499056338 -1.658601390 0.172025436
C -10.560881830 -0.983851443 -0.703666615
C -9.734153464 -3.176667839 0.149365986
C -9.563453319 -1.173859731 1.624331132
C -3.303588493 1.113875647 -2.339369565
S -1.205812325 2.352504674 0.387223411
C 3.309633848 -1.071007956 1.972087775
C 4.632307637 -1.173691047 1.524797641
C 5.340037039 0.007638922 1.233758779
H 11.190479855 0.657452884 -0.067482465
H 11.854123437 -0.575800728 -1.163815555
H 10.563576728 0.522967998 -1.701910534
H 9.728839365 -2.579554448 1.202419225
H 11.370702985 -2.304509483 0.615094839
H 10.584015568 -1.125362023 1.692216595
H 10.404359679 -2.510909973 -1.900780952
H 8.803586707 -2.775277788 -1.203938764
H 9.041759247 -1.453583928 -2.337557321
H 7.780045938 1.973835674 0.283803260
H 5.549482664 3.312652488 1.015961807
H 2.942507115 2.314515179 1.972262640
H 1.200319071 -0.251915184 3.613069118
H -0.705038352 0.716335037 2.637725910
H -0.446455611 4.185101025 -2.612740311
H -2.714986491 4.151898003 -3.302460067
H -4.747099227 4.065545166 -1.434555242
H -6.563006382 2.557539546 -0.753096057
H -3.753710542 -1.881606292 -2.387938809
H -6.181001940 -2.447706267 -1.345391055
H -10.439128922 -1.273047907 -1.753891425
H -10.486061545 0.107337911 -0.669026062
H -11.573789355 -1.252727032 -0.382568119
H -8.974163714 -3.697587506 0.744017238
H -10.721739033 -3.441979626 0.542081184
H -9.650128131 -3.568655519 -0.871463561
H -10.514431664 -1.448615902 2.093474171
H -9.466042313 -0.086636245 1.696612459
H -8.745445525 -1.602865430 2.214160979
H -2.400124648 0.711374140 -2.790922080
H 2.763484325 -1.986699400 2.189389358
H 5.084574755 -2.154085677 1.402907843
