85
0 1 Before single point calculation
C -15.555920335 -1.089046241 0.696566137
C -14.173483630 -1.582508472 0.250054871
C -14.202682405 -1.892700166 -1.250869116
C -13.791904114 -2.828339540 1.057724350
O -13.227024035 -0.514795617 0.514316155
C -11.939533564 -0.812044258 0.169101515
O -11.569412920 -1.857029218 -0.323803016
N -10.990317501 0.219122201 0.429743611
C -11.257505120 1.463814703 0.981694578
C -10.097638803 2.166363112 1.093302567
C -9.042885654 1.346344615 0.596398726
C -7.661546086 1.537971230 0.478150606
C -6.874145581 0.524797685 -0.044509682
C -5.410990598 0.695202097 -0.160538146
C -4.545476380 -0.369679632 0.094568123
C -3.185102519 -0.212974936 -0.004419841
C -2.631058558 1.015731239 -0.363166928
C -1.200709049 1.191009936 -0.461746954
N -0.618492796 2.318648366 -0.786977219
N 0.708744910 2.266951727 -0.810668863
C 1.213277674 1.096909139 -0.505675037
C 2.628801959 0.813049231 -0.458824200
C 3.100990132 -0.459158981 -0.135871983
C 4.448502411 -0.717466806 -0.084445520
C 5.381895784 0.285412440 -0.351244871
C 6.831427396 0.006227659 -0.282108098
C 7.717803867 0.961560870 0.276030287
C 9.060985887 0.727473259 0.372380272
C 9.564277938 -0.486237100 -0.096204815
C 8.710260440 -1.448623724 -0.657578104
C 9.518915825 -2.560966963 -1.032284996
C 10.805538276 -2.268867427 -0.700395328
N 10.857507433 -1.006800539 -0.126043921
C 12.023497328 -0.354869075 0.371521336
O 11.930181155 0.751704639 0.860266988
O 13.181190567 -1.069192684 0.249341988
C 14.352851861 -0.396406096 0.778581840
C 14.586840748 0.915877602 0.021740071
C 15.551433883 -1.330139138 0.564632542
C 14.170029718 -0.136730130 2.278337170
C 7.336754247 -1.196890897 -0.747540856
C 4.907682903 1.557361886 -0.676788216
C 3.559623823 1.815231664 -0.730605006
S -0.035054949 -0.062737386 -0.163665840
C -3.493675761 2.080692326 -0.620078762
C -4.854663038 1.923982946 -0.520347127
C -7.485961816 -0.685727433 -0.457250220
C -8.833327490 -0.886082820 -0.347441102
C -9.620262192 0.134628652 0.185498117
H -16.320132093 -1.845799085 0.525361014
H -15.544373652 -0.842538502 1.756648271
H -15.830546681 -0.189584639 0.148727382
H -13.223387435 -2.231048255 -1.584492175
H -14.931815058 -2.668401076 -1.479710822
H -14.457206017 -0.998740823 -1.817035455
H -14.508713913 -3.633484743 0.904172707
H -12.806721749 -3.182926161 0.760117303
H -13.754975925 -2.594099080 2.119935151
H -12.243278949 1.790602609 1.269165537
H -9.985853993 3.161783317 1.488091629
H -7.219912717 2.457614562 0.813601458
H -4.956163832 -1.319094469 0.391091872
H -2.526782877 -1.038903522 0.199064381
H 2.389881508 -1.237405977 0.077833452
H 4.797646750 -1.699679547 0.182880542
H 7.311215790 1.885230275 0.648927491
H 9.742008034 1.441261831 0.800568796
H 9.164796017 -3.467874122 -1.491970845
H 11.670085057 -2.895877037 -0.843892323
H 13.737415681 1.583535965 0.154180736
H 14.696911723 0.723686144 -1.043823731
H 15.482423276 1.422695921 0.377820851
H 16.471258389 -0.886014565 0.942256764
H 15.679492047 -1.543061258 -0.495046619
H 15.388493432 -2.276607691 1.076720864
H 15.051971213 0.335889562 2.707854850
H 13.986007487 -1.071511988 2.804498769
H 13.313987514 0.514332494 2.446091346
H 6.686960124 -1.930904269 -1.186153693
H 5.613812020 2.337937837 -0.900876440
H 3.200110936 2.797549059 -0.983038116
H -3.071085586 3.030092339 -0.899080724
H -5.507784402 2.751819047 -0.735118079
H -6.867577396 -1.457904724 -0.880048063
H -9.308211067 -1.800133922 -0.656640566
85
step=1 E=-2459.799657117936 Eh
C -15.5559197589 -1.0890462079 0.6965661229
C -14.1734841054 -1.5825084022 0.2500548804
C -14.2026825375 -1.8927000233 -1.2508690012
C -13.7919030442 -2.8283396628 1.0577242988
O -13.2270236756 -0.5147956084 0.5143161209
C -11.9395336958 -0.8120442693 0.1691015094
O -11.5694119247 -1.8570291982 -0.3238030221
N -10.9903171259 0.2191222022 0.4297435800
C -11.2575042772 1.4638147582 0.9816945884
C -10.0976379127 2.1663630337 1.0933024490
C -9.0428862034 1.3463445983 0.5963986926
C -7.6615457456 1.5379712289 0.4781505998
C -6.8741456030 0.5247976609 -0.0445096826
C -5.4109906812 0.6952020523 -0.1605381309
C -4.5454766743 -0.3696796276 0.0945681216
C -3.1851024240 -0.2129749305 -0.0044198415
C -2.6310585197 1.0157311713 -0.3631669220
C -1.2007089813 1.1910098510 -0.4617469212
N -0.6184927989 2.3186483285 -0.7869772507
N 0.7087449089 2.2669516309 -0.8106688425
C 1.2132776809 1.0969091304 -0.5056749905
C 2.6288019335 0.8130491927 -0.4588242014
C 3.1009901614 -0.4591590013 -0.1358719799
C 4.4485026432 -0.7174667601 -0.0844455225
C 5.3818953328 0.2854124325 -0.3512448610
C 6.8314271535 0.0062276590 -0.2821080913
C 7.7178037814 0.9615608507 0.2760302687
C 9.0609860325 0.7274732418 0.3723802517
C 9.5642773442 -0.4862370785 -0.0962048085
C 8.7102601356 -1.4486235992 -0.6575781029
C 9.5189162367 -2.5609669926 -1.0322849987
C 10.8055378367 -2.2688674323 -0.7003952916
N 10.8575077062 -1.0068005227 -0.1260439208
C 12.0234979951 -0.3548690687 0.3715213283
O 11.9301807955 0.7517046420 0.8602669820
O 13.1811907642 -1.0691926591 0.2493419781
C 14.3528520548 -0.3964060878 0.7785818277
C 14.5868406176 0.9158776013 0.0217400709
C 15.5514332463 -1.3301391918 0.5646325603
C 14.1700295360 -0.1367301413 2.2783371908
C 7.3367544851 -1.1968908725 -0.7475408111
C 4.9076829332 1.5573618218 -0.6767882305
C 3.5596235997 1.8152316600 -0.7306050078
S -0.0350549475 -0.0627373821 -0.1636658275
C -3.4936757100 2.0806922119 -0.6200787377
C -4.8546630545 1.9239828421 -0.5203471218
C -7.4859618947 -0.6857274412 -0.4572502008
C -8.8333271965 -0.8860828287 -0.3474410982
C -9.6202617266 0.1346286516 0.1854981182
H -16.3201319700 -1.8457991212 0.5253609913
H -15.5443737472 -0.8425384712 1.7566482131
H -15.8305461999 -0.1895846416 0.1487273824
H -13.2233869581 -2.2310481795 -1.5844922611
H -14.9318150991 -2.6684010209 -1.4797107600
H -14.4572061977 -0.9987407887 -1.8170354293
H -14.5087140055 -3.6334846096 0.9041726829
H -12.8067212785 -3.1829261615 0.7601173002
H -13.7549750740 -2.5940991111 2.1199350625
H -12.2432784567 1.7906025831 1.2691654620
H -9.9858539471 3.1617831136 1.4880915300
H -7.2199123527 2.4576143916 0.8136014315
H -4.9561639320 -1.3190944326 0.3910918521
H -2.5267826633 -1.0389035080 0.1990643698
H 2.3898813914 -1.2374059498 0.0778334480
H 4.7976467500 -1.6996795293 0.1828805378
H 7.3112152710 1.8852301895 0.6489274790
H 9.7420081358 1.4412617493 0.8005687493
H 9.1647958426 -3.4678740611 -1.4919707906
H 11.6700849257 -2.8958769204 -0.8438923023
H 13.7374152966 1.5835358897 0.1541807388
H 14.6969114990 0.7236861428 -1.0438237289
H 15.4824225054 1.4226958685 0.3778208602
H 16.4712574089 -0.8860145384 0.9422567307
H 15.6794916495 -1.5430612892 -0.4950466302
H 15.3884939897 -2.2766077021 1.0767208928
H 15.0519700078 0.3358895619 2.7078548439
H 13.9860069967 -1.0715120110 2.8044987425
H 13.3139870550 0.5143324778 2.4460913515
H 6.6869603937 -1.9309042313 -1.1861535917
H 5.6138118440 2.3379377903 -0.9008763798
H 3.2001108792 2.7975491005 -0.9830381217
H -3.0710854735 3.0300921311 -0.8990807016
H -5.5077845539 2.7518188918 -0.7351180798
H -6.8675770215 -1.4579046425 -0.8800480125
H -9.3082114447 -1.8001338690 -0.6566405279
85
step=2 E=-2459.816372819400 Eh
C -15.6033146641 -0.9303758585 0.7225528066
C -14.2717481587 -1.5269280816 0.2493620127
C -14.3595804730 -1.8474302573 -1.2487876373
C -13.9619638220 -2.7911211150 1.0623134888
O -13.2457291622 -0.5197248537 0.4840554035
C -11.9740232984 -0.8633052459 0.1292510718
O -11.6008516828 -1.9083614820 -0.3648359805
N -11.0215626107 0.1588038019 0.3940252098
C -11.2916838030 1.4047062522 0.9487332067
C -10.1302076739 2.1091097606 1.0694821868
C -9.0711863211 1.2860035113 0.5744999829
C -7.6865279389 1.4773133062 0.4640483559
C -6.8928118128 0.4626433656 -0.0582968994
C -5.4269025436 0.6317111029 -0.1666576241
C -4.5582638435 -0.4359513742 0.0900788914
C -3.1919573520 -0.2773628573 -0.0028042047
C -2.6336268605 0.9562623717 -0.3569327165
C -1.2001519368 1.1398584337 -0.4507957206
N -0.6240251528 2.2763903161 -0.7723089697
N 0.7053591573 2.2329728274 -0.7925599780
C 1.2161561009 1.0608615320 -0.4884307087
C 2.6372266101 0.7858940876 -0.4388591728
C 3.1266107846 -0.4856882804 -0.1181043702
C 4.4824372366 -0.7300551722 -0.0655861280
C 5.4084594413 0.2864724927 -0.3290165948
C 6.8634883003 0.0260816123 -0.2598586059
C 7.7380852040 0.9934033586 0.3021201921
C 9.0913165943 0.7799110185 0.4005945073
C 9.6093671514 -0.4292426445 -0.0730346599
C 8.7675285436 -1.4064647891 -0.6396899622
C 9.5929665413 -2.5103562678 -1.0186144123
C 10.8774202063 -2.1979138833 -0.6834620025
N 10.9113828558 -0.9340998176 -0.1045580483
C 12.0667577589 -0.2712909993 0.3931121899
O 11.9818151829 0.8341748833 0.8893801252
O 13.2144911313 -0.9956707858 0.2538178559
C 14.4307334030 -0.3759911946 0.7626298484
C 14.7048535822 0.9356086535 0.0147543989
C 15.5781783696 -1.3605601952 0.5036666778
C 14.3010200436 -0.1289188637 2.2716831300
C 7.3881698866 -1.1724422845 -0.7295332656
C 4.9164525842 1.5572300165 -0.6521765794
C 3.5605113073 1.8022198854 -0.7073571534
S -0.0267735574 -0.1111699047 -0.1519284534
C -3.4992352109 2.0244436160 -0.6155835649
C -4.8657461599 1.8648089199 -0.5216869800
C -7.5046383710 -0.7482805484 -0.4778618911
C -8.8588972424 -0.9527350763 -0.3770706410
C -9.6481848948 0.0707822348 0.1555667081
H -16.4246531593 -1.6344887911 0.5758529083
H -15.5493355655 -0.6752293423 1.7827551085
H -15.8267156118 -0.0155059062 0.1702253366
H -13.4145171078 -2.2591550246 -1.6050830799
H -15.1503118981 -2.5728437758 -1.4505085527
H -14.5651819448 -0.9396347224 -1.8194638892
H -14.7415155515 -3.5443056490 0.9314333875
H -13.0103894873 -3.2214241387 0.7476279911
H -13.8849372665 -2.5499187367 2.1243665171
H -12.2833882048 1.7280783872 1.2308066277
H -10.0207319736 3.1066854823 1.4687989137
H -7.2448744428 2.3999733403 0.8058506711
H -4.9703997831 -1.3904497716 0.3835023945
H -2.5326126361 -1.1078578921 0.2026706454
H 2.4224066986 -1.2768775244 0.0936837653
H 4.8428912290 -1.7131355985 0.2004758654
H 7.3161724842 1.9136597961 0.6785320800
H 9.7634693699 1.5052344245 0.8327836980
H 9.2522134050 -3.4243216658 -1.4824361092
H 11.7561728701 -2.8102443179 -0.8264299492
H 13.8904046282 1.6426873803 0.1770106543
H 14.7792821700 0.7517386280 -1.0588733677
H 15.6346940247 1.3957874762 0.3550750235
H 16.5287242591 -0.9612467935 0.8625995769
H 15.6684142445 -1.5654465266 -0.5649336837
H 15.3860524696 -2.3086262893 1.0098596331
H 15.2184085782 0.2987973402 2.6810526633
H 14.0900823452 -1.0649884040 2.7925956526
H 13.4791467140 0.5588479149 2.4746215845
H 6.7461174467 -1.9173326407 -1.1724563513
H 5.6159485975 2.3500524106 -0.8742780538
H 3.1891131880 2.7849951276 -0.9584285450
H -3.0747200506 2.9786133199 -0.8913764789
H -5.5201946168 2.6965668859 -0.7383610904
H -6.8812719682 -1.5222085951 -0.9008128749
H -9.3324342230 -1.8695926839 -0.6929081453
85
step=3 E=-2459.836980395584 Eh
C -15.6672349459 -0.8517610016 0.7120777615
C -14.3818202162 -1.5331518704 0.2312671132
C -14.4998592535 -1.8789716999 -1.2610866803
C -14.1180442520 -2.7975698310 1.0634390341
O -13.3066955179 -0.5603985319 0.4391376938
C -12.0526055857 -0.9199344613 0.0953626612
O -11.7665022757 -2.0030701869 -0.3831458280
N -11.1096722419 0.1018112090 0.3553146681
C -11.3913218604 1.3603693850 0.8984850866
C -10.2326422524 2.0847036340 1.0269816774
C -9.1557315695 1.2553506215 0.5451676311
C -7.7643894101 1.4529388802 0.4434037662
C -6.9492698529 0.4298591092 -0.0662743946
C -5.4780115418 0.6039826659 -0.1662648277
C -4.5974725669 -0.4662507181 0.1077967805
C -3.2156896921 -0.3029043493 0.0219736529
C -2.6535235570 0.9408637905 -0.3428594225
C -1.2103717420 1.1399087319 -0.4329196208
N -0.6420737604 2.2903907215 -0.7646846821
N 0.6933493728 2.2576650317 -0.7795157550
C 1.2120997866 1.0804328577 -0.4606115476
C 2.6457062863 0.8118171116 -0.4030664555
C 3.1553433393 -0.4625898422 -0.0676554653
C 4.5293783397 -0.6914793156 -0.0108172514
C 5.4533707664 0.3414459860 -0.2839044378
C 6.9165444580 0.0977664115 -0.2113181099
C 7.7840700652 1.0848362360 0.3427571646
C 9.1599987999 0.8956376170 0.4491254364
C 9.6864140679 -0.3215721667 -0.0175900161
C 8.8523814396 -1.3281831280 -0.5805342009
C 9.7024704052 -2.4329623242 -0.9506649470
C 10.9888875315 -2.0921522433 -0.6141799832
N 11.0011711777 -0.8137436724 -0.0453336000
C 12.1381845443 -0.1374026200 0.4401575541
O 12.1107086573 0.9742624100 0.9370663951
O 13.2344445616 -0.9124051047 0.2684975461
C 14.5411567055 -0.4213690782 0.7170299363
C 14.9146897387 0.8648940373 -0.0372494821
C 15.5429188713 -1.5302918974 0.3787999051
C 14.5253400416 -0.1799704777 2.2351300504
C 7.4635096224 -1.1104268335 -0.6726330888
C 4.9375759141 1.6139029065 -0.6211370979
C 3.5646715531 1.8480243533 -0.6817813603
S -0.0253909060 -0.1117108403 -0.1140781889
C -3.5284526083 2.0150648221 -0.6196958992
C -4.9092693898 1.8458307307 -0.5316232837
C -7.5551367008 -0.7929958711 -0.4795012794
C -8.9268477686 -1.0158127604 -0.3907826086
C -9.7265214928 0.0181595410 0.1285060761
H -16.5303801904 -1.5241190530 0.5875818303
H -15.5850024759 -0.5762609111 1.7773003658
H -15.8538450810 0.0723922043 0.1389763981
H -13.5722675845 -2.3492147973 -1.6232978853
H -15.3364096294 -2.5752746822 -1.4334960919
H -14.6724251227 -0.9652305679 -1.8551606607
H -14.9457725778 -3.5162627759 0.9508559195
H -13.1847282071 -3.2850321974 0.7408298664
H -14.0158887349 -2.5407667947 2.1317399960
H -12.4045013518 1.6625335687 1.1634178080
H -10.1398850571 3.0976656158 1.4224049699
H -7.3251246429 2.3947315130 0.7847441599
H -5.0104859191 -1.4329823103 0.4114940932
H -2.5504946525 -1.1442148504 0.2438115967
H 2.4554853886 -1.2752658151 0.1543221589
H 4.9033224080 -1.6813113129 0.2685051557
H 7.3443537929 2.0151072212 0.7146964345
H 9.8259722442 1.6457735806 0.8800392522
H 9.3791262511 -3.3684440290 -1.4102177092
H 11.8976977791 -2.6804025247 -0.7418303185
H 14.1912576803 1.6655431737 0.1788086711
H 14.9096615187 0.6869537741 -1.1263062874
H 15.9183299280 1.2104238294 0.2591732923
H 16.5592994780 -1.2395731640 0.6870747398
H 15.5468233802 -1.7316660501 -0.7059999709
H 15.2721905162 -2.4677206473 0.8938563637
H 15.5193225492 0.1401072866 2.5873197107
H 14.2423768735 -1.1038551013 2.7681796899
H 13.7939911156 0.5997582921 2.4966011479
H 6.8217694797 -1.8780050692 -1.1147951481
H 5.6342058403 2.4253980423 -0.8533068843
H 3.1760201860 2.8358371390 -0.9455457208
H -3.0993539457 2.9797734933 -0.9053585192
H -5.5712689408 2.6855563326 -0.7645740018
H -6.9155211270 -1.5772696133 -0.8952117607
H -9.3903869167 -1.9516490741 -0.7076581130
85
step=4 E=-2459.837069849737 Eh
C -15.5176230372 -0.4985297866 0.6949729380
C -14.4335067592 -1.4428990997 0.1745649677
C -14.6774009276 -1.7860572912 -1.3039542487
C -14.3473041990 -2.7037264310 1.0500953936
O -13.2162205273 -0.6286162862 0.3216177383
C -12.0070428590 -1.0928793937 -0.0246116093
O -11.6116359309 -2.1472543510 -0.4947760059
N -11.1179580329 -0.0511366336 0.2682840427
C -11.4398422301 1.2071656691 0.8079498658
C -10.2865228668 1.9400996162 0.9628331266
C -9.1718445994 1.1341863557 0.5062357292
C -7.7788242192 1.3338062446 0.4275607940
C -6.9487693142 0.3040701230 -0.0682907687
C -5.4783402772 0.5032541176 -0.1415575638
C -4.5835376494 -0.5642127989 0.1287490687
C -3.1957853993 -0.3861389024 0.0690329860
C -2.6463066649 0.8766145657 -0.2657165249
C -1.1989122875 1.0979115418 -0.3336966269
N -0.6385501683 2.2655611402 -0.6342522887
N 0.7012263941 2.2436634693 -0.6404921613
C 1.2258549760 1.0582572709 -0.3451780886
C 2.6658340718 0.7891097410 -0.2910708883
C 3.1753538855 -0.4964525583 0.0195198496
C 4.5570965605 -0.7197653120 0.0664931561
C 5.4836986482 0.3224694266 -0.1932750832
C 6.9467029895 0.0673986679 -0.1394214014
C 7.8278297948 1.0534658403 0.3953467470
C 9.2147029108 0.8531949752 0.4755055764
C 9.7273723801 -0.3665711476 0.0001490427
C 8.8728048008 -1.3761511110 -0.5453510396
C 9.7313292203 -2.4778861195 -0.9316663980
C 11.0264200112 -2.1347150058 -0.6211071502
N 11.0497917422 -0.8487225420 -0.0530421536
C 12.1783734722 -0.1532117719 0.4032727266
O 12.0436280513 0.9604493438 0.8780514568
O 13.2999901466 -0.8718293447 0.2287616622
C 14.5892960319 -0.3146335049 0.6496408212
C 14.8821534417 0.9713979403 -0.1371270732
C 15.5773101306 -1.4243326552 0.2863789417
C 14.5739167487 -0.0560757605 2.1635362825
C 7.4826575867 -1.1524939298 -0.6096044428
C 4.9631412554 1.6070327285 -0.5032510967
C 3.5836694391 1.8398488955 -0.5529211764
S -0.0053207652 -0.1628887052 -0.0181980395
C -3.5314221493 1.9523957904 -0.5385111561
C -4.9169953630 1.7641529250 -0.4770015679
C -7.5368440834 -0.9252066216 -0.4897932701
C -8.9196492690 -1.1513745992 -0.4263121860
C -9.7249726293 -0.1142307346 0.0773285683
H -16.5037547546 -1.0031583540 0.6359086097
H -15.3267991443 -0.2147216199 1.7536504277
H -15.5594917408 0.4345291155 0.0904691693
H -13.8724881270 -2.4368348007 -1.7030457458
H -15.6472608243 -2.3180688563 -1.4020241326
H -14.7235622395 -0.8595763030 -1.9189481715
H -15.3114634194 -3.2523276318 0.9985695768
H -13.5358684886 -3.3773861004 0.7059651790
H -14.1568686408 -2.4312899858 2.1122853914
H -12.4842033077 1.4551415262 1.0322089817
H -10.2303281187 2.9619440151 1.3639008194
H -7.3393981265 2.2843994976 0.7813648150
H -4.9876765608 -1.5509492275 0.4174991999
H -2.5261938116 -1.2373554789 0.2956154399
H 2.4796537560 -1.3290423194 0.2364952609
H 4.9327815002 -1.7235059539 0.3349280033
H 7.4017053512 1.9958765989 0.7840132942
H 9.8883735336 1.6133599551 0.9007840190
H 9.4132120027 -3.4249788662 -1.3901046935
H 11.9626099670 -2.6887843428 -0.7512067560
H 14.1339767782 1.7582036430 0.0955500447
H 14.8613625367 0.7751808534 -1.2323346907
H 15.8916928743 1.3475457904 0.1323237345
H 16.6039222555 -1.1092713655 0.5649941114
H 15.5557426890 -1.6376774751 -0.8052819423
H 15.3366733083 -2.3668224146 0.8263321442
H 15.5757766021 0.2957461803 2.4886970401
H 14.3323036633 -0.9895810147 2.7190843900
H 13.8215705611 0.7170588167 2.4267809636
H 6.8205714020 -1.9201957261 -1.0502161980
H 5.6591182866 2.4338988382 -0.7336702661
H 3.1835267501 2.8373159081 -0.8036955239
H -3.1011950293 2.9322851946 -0.8081516025
H -5.5872791521 2.6090681194 -0.7180632078
H -6.8865992041 -1.7161423782 -0.9047684845
H -9.3715763184 -2.0978083639 -0.7617816193
85
step=5 E=-2459.842908423861 Eh
C -15.6052579993 -0.5527148587 0.6173560012
C -14.4760555070 -1.4630022252 0.1290228225
C -14.6711447317 -1.8193379301 -1.3526550191
C -14.3685037585 -2.7135907997 1.0150877624
O -13.2874879822 -0.6069824817 0.3006784393
C -12.0459971671 -1.0260004264 -0.0120170490
O -11.7047520586 -2.1035306795 -0.4666846417
N -11.1312737968 0.0084078075 0.2721924839
C -11.4289429895 1.2793021980 0.7944264728
C -10.2717754693 2.0013243576 0.9481789514
C -9.1749642077 1.1682187367 0.5056768075
C -7.7820139808 1.3575685429 0.4357502464
C -6.9578021513 0.3175394754 -0.0412535965
C -5.4851048313 0.4956795039 -0.1099415432
C -4.6020134242 -0.5745354486 0.1745510301
C -3.2154484910 -0.4074384765 0.1168559478
C -2.6501151148 0.8422424684 -0.2290010081
C -1.2037279879 1.0581620981 -0.2971261632
N -0.6432780248 2.2189760072 -0.6093666858
N 0.6958774905 2.1968478504 -0.6140472908
C 1.2197897186 1.0181078692 -0.3057911109
C 2.6587755286 0.7540943475 -0.2482546059
C 3.1841906533 -0.5190044761 0.0746731849
C 4.5649092339 -0.7316830930 0.1228078541
C 5.4809656979 0.3135331786 -0.1491708359
C 6.9473811852 0.0836296178 -0.0977051587
C 7.8165647368 1.0862840116 0.4196354550
C 9.2034229247 0.9102509227 0.4960150833
C 9.7319982633 -0.3063296317 0.0332153885
C 8.8917122424 -1.3346685589 -0.4954336740
C 9.7516201652 -2.4338409429 -0.8769152293
C 11.0396797216 -2.0667413428 -0.5774540629
N 11.0585683986 -0.7749204715 -0.0239694318
C 12.1944941161 -0.0688854005 0.4142937414
O 12.1459895491 1.0519370407 0.8901776319
O 13.2914108827 -0.8223107625 0.2166499813
C 14.6247615582 -0.3247640427 0.5930369148
C 14.9565189717 0.9401111925 -0.2122609434
C 15.5430273833 -1.4841496211 0.2016337417
C 14.6760469243 -0.0645463724 2.1057705243
C 7.5002384211 -1.1305098538 -0.5543381451
C 4.9453206366 1.5857304389 -0.4714154549
C 3.5669465532 1.8060859696 -0.5218583947
S -0.0112316587 -0.1988882102 0.0328801375
C -3.5249897521 1.9188014697 -0.5156373911
C -4.9093203554 1.7438873901 -0.4566722461
C -7.5572139396 -0.9082866650 -0.4508362905
C -8.9389226873 -1.1254940008 -0.3962239868
C -9.7385982068 -0.0773428321 0.0888895694
H -16.5729559990 -1.0869036945 0.5386639873
H -15.4496815223 -0.2586800370 1.6765360212
H -15.6625766687 0.3727907466 0.0068736069
H -13.8377698195 -2.4436632640 -1.7286716050
H -15.6187794773 -2.3825841966 -1.4728792591
H -14.7330585160 -0.8989303530 -1.9711590040
H -15.3105415724 -3.2944192764 0.9452462575
H -13.5288558121 -3.3610422233 0.6965024139
H -14.2141881852 -2.4281332229 2.0772804405
H -12.4683228276 1.5446854761 1.0098978473
H -10.2025392018 3.0254601030 1.3361212430
H -7.3388260876 2.3062802834 0.7809537552
H -5.0140549137 -1.5523972904 0.4725109574
H -2.5568770797 -1.2604590435 0.3548015595
H 2.4989815772 -1.3538844420 0.3014956471
H 4.9477451726 -1.7270610629 0.4015310638
H 7.3796823289 2.0246813168 0.7983890915
H 9.8638323078 1.6847570672 0.9080438700
H 9.4419312595 -3.3881151486 -1.3214950095
H 11.9810616993 -2.6092126311 -0.7066983647
H 14.2613075721 1.7648453126 0.0391634943
H 14.8891570829 0.7391613132 -1.3024831460
H 15.9914996606 1.2642012307 0.0191185945
H 16.5929682379 -1.2235638847 0.4419926328
H 15.4725525543 -1.6979906692 -0.8854694316
H 15.2736888669 -2.4088759840 0.7537677003
H 15.7039392952 0.2352600287 2.3943766995
H 14.4087654188 -0.9828215031 2.6704509171
H 13.9763435189 0.7443129475 2.3938116569
H 6.8490137160 -1.9108552018 -0.9816446980
H 5.6309073466 2.4150045868 -0.7117036436
H 3.1593233764 2.7951467347 -0.7826683205
H -3.0866975882 2.8896815153 -0.7944141763
H -5.5686041946 2.5906587084 -0.7093112904
H -6.9127792794 -1.7077092661 -0.8513280995
H -9.3923821654 -2.0705630357 -0.7238975962
85
step=6 E=-2459.842325584774 Eh
C -15.6531945401 -0.5849793612 0.5874212754
C -14.4802799210 -1.4538869249 0.1201043135
C -14.6187572735 -1.8060597364 -1.3657821970
C -14.3412504352 -2.7030450176 0.9983476380
O -13.3121663911 -0.5739308584 0.3168566328
C -12.0709246111 -1.0003730175 0.0132258221
O -11.7852857128 -2.0954390527 -0.4349543752
N -11.1255343032 0.0104539315 0.2858100437
C -11.4319748881 1.2796037315 0.8030072088
C -10.2742310555 1.9987903045 0.9546589823
C -9.1788251311 1.1628483779 0.5169456764
C -7.7871525127 1.3582301870 0.4489949712
C -6.9526273869 0.3256384500 -0.0229311527
C -5.4805938735 0.5061966586 -0.0968227599
C -4.5955474269 -0.5639254479 0.1744487205
C -3.2107124694 -0.3939497806 0.1108488125
C -2.6495518630 0.8576049110 -0.2284257253
C -1.2042243330 1.0707867758 -0.3023985633
N -0.6410118295 2.2286168907 -0.6099003160
N 0.6979709958 2.2041993489 -0.6155674635
C 1.2211514640 1.0265883774 -0.3128041064
C 2.6584615101 0.7608351049 -0.2512809542
C 3.1758086306 -0.5153345269 0.0654321508
C 4.5538737841 -0.7362632954 0.1176896559
C 5.4746200822 0.3054588861 -0.1444213261
C 6.9392816136 0.0678806114 -0.0905960409
C 7.8125851850 1.0726442382 0.4155880053
C 9.1983802442 0.9042980986 0.4936539635
C 9.7157868374 -0.3192168842 0.0400173285
C 8.8772400700 -1.3513898913 -0.4755738740
C 9.7440852573 -2.4480755328 -0.8454657027
C 11.0387511596 -2.0939065564 -0.5629020756
N 11.0368804234 -0.7970397269 -0.0222288480
C 12.1712427611 -0.0779645702 0.4045509530
O 12.0688099680 1.0446292648 0.8659430358
O 13.2899900725 -0.8098787497 0.2207036548
C 14.6335896233 -0.3078712374 0.5862662523
C 14.9725832786 0.9409003016 -0.2393349613
C 15.5457146920 -1.4746800087 0.1994441117
C 14.7045552457 -0.0431049799 2.0965916952
C 7.4859102791 -1.1517893922 -0.5361956442
C 4.9472086941 1.5812785755 -0.4602194065
C 3.5718638273 1.8092996979 -0.5145955876
S -0.0127880870 -0.1912667276 0.0090534181
C -3.5264600004 1.9340495176 -0.5030358236
C -4.9085136873 1.7561874404 -0.4377474573
C -7.5463732970 -0.9038729398 -0.4277756580
C -8.9254857667 -1.1289892204 -0.3757756160
C -9.7339436342 -0.0851144048 0.1026335685
H -16.6043057174 -1.1425258615 0.4869710921
H -15.5284360834 -0.2952822820 1.6488500589
H -15.7237437151 0.3383448456 -0.0197061022
H -13.7557073597 -2.4003843321 -1.7165738740
H -15.5417827300 -2.3975225654 -1.5215364073
H -14.6909893631 -0.8858219603 -1.9782292653
H -15.2567682781 -3.3198490055 0.9120093434
H -13.4741883436 -3.3138480218 0.6880495259
H -14.2156014312 -2.4187733874 2.0616358404
H -12.4715932466 1.5428210340 1.0136532533
H -10.2040649696 3.0227188649 1.3372142586
H -7.3518861039 2.3078922692 0.7920354936
H -5.0038533516 -1.5421297814 0.4667818733
H -2.5508328078 -1.2452367335 0.3385884157
H 2.4866770756 -1.3454935036 0.2843210356
H 4.9296156410 -1.7325563671 0.3925397972
H 7.3770741081 2.0118207030 0.7859548594
H 9.8592350262 1.6806969565 0.8958197212
H 9.4311280857 -3.4040675934 -1.2784334060
H 11.9798543153 -2.6347310861 -0.6911887864
H 14.2943225081 1.7770057919 0.0056776547
H 14.8950041484 0.7233618474 -1.3229533532
H 16.0124865714 1.2554665596 -0.0250493363
H 16.5999129256 -1.2244739457 0.4262586064
H 15.4636699035 -1.6949007500 -0.8827075615
H 15.2742325881 -2.3885036862 0.7629178637
H 15.7371106481 0.2451132842 2.3741079894
H 14.4376395436 -0.9563679259 2.6643067410
H 14.0206557983 0.7722290899 2.3910503335
H 6.8355006126 -1.9331513725 -0.9556100404
H 5.6366822369 2.4060633355 -0.6926708110
H 3.1709577074 2.7996937773 -0.7702578915
H -3.0918942850 2.9050731347 -0.7773412632
H -5.5689635229 2.6009797870 -0.6821915383
H -6.8985735837 -1.6989638885 -0.8242493355
H -9.3700493401 -2.0758160227 -0.7012348200
85
step=7 E=-2459.843409145785 Eh
C -15.6449254056 -0.5917694057 0.5777519550
C -14.4732192387 -1.4635005631 0.1141171106
C -14.6107851752 -1.8200311665 -1.3708065311
C -14.3360697907 -2.7098674265 0.9966246354
O -13.3041889414 -0.5827074829 0.3094017140
C -12.0622544727 -1.0084384175 0.0088790224
O -11.7483444889 -2.0977247531 -0.4361467908
N -11.1309779790 0.0125691901 0.2845200236
C -11.4328116640 1.2851132323 0.7977169172
C -10.2761814275 2.0071504560 0.9493919638
C -9.1811740325 1.1690465594 0.5150549926
C -7.7889414016 1.3614879684 0.4467482796
C -6.9572657679 0.3248492335 -0.0219545194
C -5.4852787529 0.5056366632 -0.0949361159
C -4.5997595553 -0.5635586179 0.1797982674
C -3.2146107425 -0.3931593501 0.1170216163
C -2.6536067490 0.8579838831 -0.2248621532
C -1.2082293507 1.0724328293 -0.2982500588
N -0.6468363872 2.2306098279 -0.6081280619
N 0.6923771057 2.2081504975 -0.6129827039
C 1.2168637028 1.0317735179 -0.3071962748
C 2.6548141707 0.7687613066 -0.2444999586
C 3.1750749196 -0.5056497849 0.0754254374
C 4.5540088326 -0.7229280858 0.1284379749
C 5.4728095215 0.3203088635 -0.1359337230
C 6.9379968529 0.0856223510 -0.0811023884
C 7.8108332453 1.0921197993 0.4218173363
C 9.1966557733 0.9197869654 0.4977662200
C 9.7191158588 -0.3037334026 0.0482347776
C 8.8780132752 -1.3374509152 -0.4642715119
C 9.7362102229 -2.4401327861 -0.8347267540
C 11.0283567182 -2.0772454038 -0.5509691322
N 11.0413204581 -0.7791711554 -0.0124272921
C 12.1810549844 -0.0647784934 0.4095398020
O 12.1237530832 1.0603041963 0.8732314646
O 13.2828697499 -0.8157634479 0.2171093010
C 14.6320510208 -0.3256725449 0.5751529612
C 14.9765772466 0.9184082436 -0.2539062691
C 15.5320631322 -1.5013928283 0.1862323576
C 14.7109824695 -0.0583912986 2.0839172925
C 7.4868001371 -1.1346072475 -0.5231610334
C 4.9424598918 1.5944660229 -0.4549608178
C 3.5662612583 1.8187932859 -0.5101125436
S -0.0153171942 -0.1878243402 0.0171911288
C -3.5311303585 1.9334428528 -0.5029291450
C -4.9134601590 1.7553684074 -0.4385068327
C -7.5527643786 -0.9051842238 -0.4232040076
C -8.9327689260 -1.1259732926 -0.3701883388
C -9.7394967192 -0.0793139522 0.1046172950
H -16.5967134706 -1.1486593076 0.4783810170
H -15.5204268175 -0.2989097970 1.6385556606
H -15.7138926167 0.3297794686 -0.0326175779
H -13.7480447769 -2.4164733431 -1.7189885567
H -15.5345723081 -2.4110684807 -1.5256112601
H -14.6817896333 -0.9013846052 -1.9861658513
H -15.2524137662 -3.3261468125 0.9117143855
H -13.4694067014 -3.3226210240 0.6888664698
H -14.2111551413 -2.4220835978 2.0592777450
H -12.4727481486 1.5488101319 1.0064626948
H -10.2069197909 3.0324350645 1.3290631132
H -7.3512284907 2.3114587641 0.7868404555
H -5.0077871868 -1.5414885287 0.4743171144
H -2.5545879713 -1.2439129600 0.3475831316
H 2.4878956417 -1.3372670545 0.2962764211
H 4.9319428140 -1.7179242856 0.4058879612
H 7.3768314626 2.0330588063 0.7903959786
H 9.8570450524 1.6977287045 0.8975342516
H 9.4223879817 -3.3975003621 -1.2650369354
H 11.9689493939 -2.6190456331 -0.6787254394
H 14.3057569136 1.7605145669 -0.0065052965
H 14.8919141888 0.6996702269 -1.3368765061
H 16.0202248329 1.2250537857 -0.0452964675
H 16.5896639007 -1.2600565859 0.4077006502
H 15.4430550543 -1.7228356705 -0.8952954629
H 15.2551467978 -2.4118311060 0.7528692169
H 15.7472528248 0.2216400761 2.3567983102
H 14.4385554596 -0.9682282122 2.6547414680
H 14.0348095244 0.7638567665 2.3789983649
H 6.8356040359 -1.9169554953 -0.9401200252
H 5.6300002019 2.4206296436 -0.6893513000
H 3.1629039646 2.8078127685 -0.7682889871
H -3.0965722010 2.9041622991 -0.7792965779
H -5.5740981357 2.5995501569 -0.6857400962
H -6.9068577822 -1.7033710018 -0.8172386841
H -9.3796899904 -2.0732053113 -0.6927890942
85
step=8 E=-2459.843545919430 Eh
C -15.6477550810 -0.5693832765 0.5638763305
C -14.4829643669 -1.4494968693 0.1018482877
C -14.6212036732 -1.8044678133 -1.3838415565
C -14.3558809811 -2.6967855893 0.9853658550
O -13.3083584360 -0.5728906734 0.3000910991
C -12.0638680580 -0.9951966303 0.0046125654
O -11.7415991477 -2.0824266044 -0.4404024248
N -11.1363932687 0.0279276849 0.2860408757
C -11.4292182996 1.3031824876 0.7996746347
C -10.2690807645 2.0195810542 0.9537041621
C -9.1777892061 1.1759763822 0.5203938628
C -7.7842603531 1.3603338524 0.4536466893
C -6.9601072076 0.3173799137 -0.0151914702
C -5.4872240570 0.4914098575 -0.0860649450
C -4.6059889143 -0.5820239896 0.1876359312
C -3.2196977615 -0.4169056789 0.1265882977
C -2.6524515486 0.8326434876 -0.2123314339
C -1.2063504231 1.0446267252 -0.2845410430
N -0.6445148606 2.2035654935 -0.5916806518
N 0.6948969963 2.1799605420 -0.5967649062
C 1.2178421041 1.0018864339 -0.2939363670
C 2.6561311377 0.7387502437 -0.2329743789
C 3.1808203202 -0.5351038152 0.0835890081
C 4.5607785468 -0.7491436207 0.1341599250
C 5.4774984602 0.2966499472 -0.1292991280
C 6.9437202798 0.0670636130 -0.0775225997
C 7.8140162892 1.0765629126 0.4243192046
C 9.2008664467 0.9067150908 0.4962963145
C 9.7285564784 -0.3140682010 0.0452340534
C 8.8886982727 -1.3500946857 -0.4661959711
C 9.7487299524 -2.4504527950 -0.8400794313
C 11.0394646821 -2.0804118784 -0.5576452704
N 11.0529716254 -0.7827765058 -0.0178058205
C 12.1906648024 -0.0646668007 0.4017645052
O 12.1303022430 1.0598980279 0.8661148638
O 13.2949841142 -0.8093888200 0.2066621247
C 14.6357969504 -0.3001664581 0.5665341786
C 14.9610068302 0.9486783489 -0.2620114409
C 15.5532145030 -1.4633970420 0.1794269498
C 14.7058558407 -0.0304774529 2.0746780017
C 7.4966158456 -1.1511317881 -0.5216082604
C 4.9426628659 1.5701987512 -0.4448976720
C 3.5654895967 1.7912445520 -0.4976204749
S -0.0149508194 -0.2183629382 0.0290869727
C -3.5260732428 1.9119881368 -0.4892561101
C -4.9095545058 1.7396958297 -0.4267355620
C -7.5632725242 -0.9087269931 -0.4175720675
C -8.9450519094 -1.1208187627 -0.3658436600
C -9.7448700271 -0.0686896390 0.1089086722
H -16.6031198860 -1.1202030549 0.4630107573
H -15.5225175896 -0.2774063281 1.6253234980
H -15.7095050456 0.3529532123 -0.0469269109
H -13.7623760536 -2.4071163973 -1.7315156759
H -15.5493753777 -2.3890297500 -1.5400654885
H -14.6855910336 -0.8847003098 -1.9991040164
H -15.2769121871 -3.3066714707 0.8993554110
H -13.4932200170 -3.3162130299 0.6792407786
H -14.2310593264 -2.4093385061 2.0486118179
H -12.4683380841 1.5720660409 1.0069718145
H -10.1952892240 3.0446028337 1.3342186622
H -7.3402011427 2.3076383882 0.7947282709
H -5.0180524597 -1.5593590492 0.4801640738
H -2.5635196016 -1.2713916389 0.3565346599
H 2.4961722979 -1.3695423702 0.3040030983
H 4.9411364776 -1.7443162274 0.4093404448
H 7.3784105258 2.0164670502 0.7950498265
H 9.8595050152 1.6871163514 0.8954550849
H 9.4379060197 -3.4090978656 -1.2706588503
H 11.9825304148 -2.6178777635 -0.6873712176
H 14.2762535766 1.7805670088 -0.0150630614
H 14.8811632153 0.7284838202 -1.3454088288
H 15.9998298300 1.2716974222 -0.0520927451
H 16.6069466057 -1.2062216601 0.4027741712
H 15.4694342164 -1.6866878683 -0.9025686768
H 15.2886614792 -2.3779004935 0.7462467101
H 15.7374733720 0.2652161006 2.3501350092
H 14.4454441752 -0.9440722114 2.6457858086
H 14.0162566597 0.7824669400 2.3670315203
H 6.8469596064 -1.9356805511 -0.9380958613
H 5.6276434368 2.3991956129 -0.6788151385
H 3.1593453848 2.7802812574 -0.7533077025
H -3.0871294119 2.8818630965 -0.7634558922
H -5.5664128069 2.5876039932 -0.6733348314
H -6.9223602132 -1.7114382473 -0.8117753620
H -9.3979900128 -2.0654894435 -0.6894779970
85
step=9 E=-2459.843583801192 Eh
C -15.6380517461 -0.5673860346 0.5218036060
C -14.4786876653 -1.4634097034 0.0797822924
C -14.6053345630 -1.8344506527 -1.4026913831
C -14.3635786499 -2.6979462191 0.9821013489
O -13.3010795397 -0.5873250310 0.2769017757
C -12.0565654460 -1.0165303861 -0.0052870091
O -11.7301023386 -2.1089830362 -0.4345076975
N -11.1309378491 0.0089575175 0.2718913665
C -11.4389792911 1.2866751081 0.7706599785
C -10.2828451746 2.0088371097 0.9254151080
C -9.1821157545 1.1689588087 0.5080314293
C -7.7896647895 1.3622837009 0.4481577392
C -6.9548522452 0.3208215044 -0.0058899599
C -5.4829258874 0.5039451156 -0.0715329511
C -4.5974324301 -0.5657501098 0.2031267123
C -3.2116234247 -0.3943493898 0.1475224230
C -2.6504660736 0.8590551999 -0.1867717648
C -1.2047388717 1.0758772380 -0.2525195474
N -0.6432471498 2.2368946119 -0.5514800205
N 0.6964975110 2.2146101782 -0.5544963619
C 1.2203608839 1.0354564555 -0.2584110511
C 2.6583827109 0.7702064595 -0.1999425938
C 3.1783160233 -0.5064696082 0.1126142700
C 4.5577380965 -0.7246190369 0.1607690564
C 5.4773495341 0.3191587046 -0.1008206232
C 6.9423732079 0.0825051937 -0.0519932279
C 7.8213586606 1.0923100720 0.4339012897
C 9.2077595750 0.9153866564 0.4998418388
C 9.7265884921 -0.3128530540 0.0592548198
C 8.8779322297 -1.3497927635 -0.4356445721
C 9.7290145015 -2.4589486393 -0.8049005353
C 11.0231405044 -2.0922858010 -0.5341016169
N 11.0479686476 -0.7891419087 -0.0079513872
C 12.1932452113 -0.0725593504 0.3928766381
O 12.1550820363 1.0576525698 0.8458440848
O 13.2878454127 -0.8288330956 0.1910074686
C 14.6352268061 -0.3195344208 0.5301297993
C 14.9485708025 0.9195157140 -0.3163371204
C 15.5425941578 -1.4913386761 0.1440703985
C 14.7178659242 -0.0339336251 2.0340557579
C 7.4868627470 -1.1435080648 -0.4853464393
C 4.9466998065 1.5957329014 -0.4120804241
C 3.5702538417 1.8212546747 -0.4626023573
S -0.0121676705 -0.1864445628 0.0628636096
C -3.5278465747 1.9352550116 -0.4650069916
C -4.9106153215 1.7560336529 -0.4079751432
C -7.5473413966 -0.9130610566 -0.3999194801
C -8.9280383074 -1.1348525790 -0.3549731999
C -9.7375922391 -0.0833542608 0.1044256390
H -16.5969768713 -1.1123114193 0.4214865707
H -15.5179423613 -0.2627495385 1.5803926889
H -15.6884000860 0.3468162181 -0.1023221984
H -13.7488609812 -2.4492922309 -1.7347433766
H -15.5375254711 -2.4124738402 -1.5610355114
H -14.6572480758 -0.9214017334 -2.0292437053
H -15.2886216232 -3.3028319486 0.9008124209
H -13.5038615696 -3.3277702961 0.6889104397
H -14.2435511171 -2.3956053740 2.0418821388
H -12.4823771788 1.5485753008 0.9663368705
H -10.2180503540 3.0380056080 1.2964828101
H -7.3543698651 2.3156186860 0.7840082427
H -5.0054685446 -1.5456567025 0.4931513717
H -2.5522466413 -1.2462125677 0.3788894649
H 2.4914248291 -1.3394625680 0.3323763961
H 4.9348693834 -1.7216705763 0.4341140429
H 7.3938907611 2.0384647940 0.7984117311
H 9.8721181135 1.6970423468 0.8872258478
H 9.4107312268 -3.4204178915 -1.2237522748
H 11.9641843601 -2.6337967705 -0.6632324524
H 14.2695143423 1.7556846437 -0.0672364094
H 14.8528788990 0.6877089512 -1.3960990204
H 15.9913881919 1.2424845582 -0.1259279290
H 16.6001693009 -1.2363182951 0.3518521816
H 15.4449820159 -1.7253200561 -0.9345988699
H 15.2813838239 -2.3984449871 0.7243532512
H 15.7535469165 0.2591976016 2.2975908079
H 14.4589471975 -0.9404173282 2.6171951362
H 14.0351291881 0.7861270174 2.3233230490
H 6.8308760219 -1.9285572219 -0.8911996565
H 5.6338284561 2.4232629581 -0.6454506090
H 3.1664797742 2.8121798851 -0.7152800115
H -3.0921818007 2.9076322158 -0.7360917999
H -5.5705672864 2.6010920003 -0.6565964895
H -6.8989697199 -1.7152407652 -0.7832623512
H -9.3716737480 -2.0859665533 -0.6727338429
85
step=10 E=-2459.843638163970 Eh
C -15.6432264397 -0.5793752866 0.4662877908
C -14.4724644612 -1.4720314659 0.0480475573
C -14.5722574217 -1.8544446963 -1.4328775002
C -14.3579815841 -2.6963573408 0.9629961208
O -13.3042357710 -0.5840561064 0.2552283726
C -12.0554872723 -1.0106101411 -0.0088247630
O -11.7206928396 -2.1059734394 -0.4240717647
N -11.1363136843 0.0202517778 0.2694542990
C -11.4414364191 1.3038806213 0.7546715977
C -10.2880397027 2.0297529845 0.9119629232
C -9.1875368885 1.1829157612 0.5081777746
C -7.7947313979 1.3740714644 0.4536237682
C -6.9577814106 0.3284110288 0.0129934636
C -5.4855436486 0.5102521524 -0.0484173526
C -4.6008810762 -0.5604884684 0.2243867460
C -3.2150238494 -0.3893948152 0.1717685186
C -2.6522914845 0.8644751631 -0.1571582333
C -1.2064742305 1.0809032369 -0.2202182619
N -0.6441789275 2.2428675004 -0.5125172461
N 0.6956840478 2.2197122848 -0.5150798884
C 1.2185925254 1.0389403512 -0.2252233714
C 2.6563193195 0.7722855081 -0.1683554722
C 3.1757642132 -0.5056416092 0.1389221491
C 4.5549086952 -0.7252385244 0.1847348703
C 5.4752805034 0.3184230928 -0.0742856184
C 6.9401151464 0.0804897449 -0.0294828899
C 7.8227742061 1.0950112158 0.4395348316
C 9.2093201549 0.9180295157 0.4990628844
C 9.7246988781 -0.3154325429 0.0695152946
C 8.8725770324 -1.3575296528 -0.4078242575
C 9.7201442963 -2.4713932763 -0.7711509471
C 11.0160086995 -2.1019838080 -0.5135185841
N 11.0452564564 -0.7930253891 -0.0020022855
C 12.1943947847 -0.0715414111 0.3790936345
O 12.1548733465 1.0637438589 0.8191846994
O 13.2886877209 -0.8290362825 0.1757456708
C 14.6428827800 -0.3175425822 0.4939721344
C 14.9470397543 0.9098941747 -0.3722296025
C 15.5406563273 -1.4974252903 0.1108900815
C 14.7409930043 -0.0154045500 1.9935294294
C 7.4815811895 -1.1507348658 -0.4517335478
C 4.9449849269 1.5964943421 -0.3798771138
C 3.5688745733 1.8233941915 -0.4278634088
S -0.0148730726 -0.1841613718 0.0895452546
C -3.5286748429 1.9419115117 -0.4332532165
C -4.9114166389 1.7629220411 -0.3793920374
C -7.5490957362 -0.9084351835 -0.3732194220
C -8.9302797226 -1.1275717436 -0.3330986788
C -9.7423193237 -0.0722237239 0.1122986849
H -16.5974916756 -1.1309842664 0.3575789370
H -15.5398405426 -0.2654779556 1.5237452408
H -15.6907223637 0.3286055818 -0.1667437082
H -13.7077829457 -2.4681292727 -1.7456647679
H -15.4992632734 -2.4376703709 -1.6024153488
H -14.6189069231 -0.9463788723 -2.0667287231
H -15.2778412925 -3.3085986350 0.8777684525
H -13.4907625046 -3.3226521594 0.6847310768
H -14.2528083886 -2.3829304868 2.0209483139
H -12.4861905896 1.5669598176 0.9404024364
H -10.2251880636 3.0621312103 1.2742890446
H -7.3605556155 2.3295569776 0.7841844840
H -5.0092488185 -1.5410267579 0.5112419614
H -2.5568689789 -1.2423901510 0.4018119053
H 2.4887921809 -1.3388647639 0.3569004752
H 4.9307835173 -1.7233605701 0.4553407749
H 7.3987447905 2.0451687848 0.7970970809
H 9.8758872422 1.7039017713 0.8735984322
H 9.3987321679 -3.4373431548 -1.1768281135
H 11.9568122412 -2.6438627628 -0.6425701978
H 14.2757406613 1.7517753725 -0.1228598504
H 14.8349645656 0.6648589550 -1.4473613953
H 15.9940276573 1.2309690512 -0.2021869785
H 16.6017737802 -1.2444820438 0.3026680147
H 15.4290562750 -1.7431894220 -0.9636284447
H 15.2830589101 -2.3960702097 0.7054738475
H 15.7810580209 0.2738786110 2.2440020320
H 14.4833239987 -0.9139810388 2.5891019917
H 14.0667791061 0.8121820800 2.2800787361
H 6.8232205669 -1.9394478822 -0.8460627256
H 5.6319895417 2.4243057437 -0.6119295740
H 3.1656545917 2.8154290824 -0.6765222350
H -3.0920719431 2.9148005493 -0.7004961750
H -5.5699902943 2.6090298757 -0.6274369137
H -6.9004090894 -1.7146805094 -0.7470457030
H -9.3726554116 -2.0810788985 -0.6449191842
85
step=11 E=-2459.843656418642 Eh
C -15.6566396409 -0.5421668416 0.4526102716
C -14.4882149931 -1.4393958580 0.0362047210
C -14.5854337582 -1.8175324333 -1.4458073363
C -14.3833638205 -2.6664115166 0.9483459694
O -13.3148212149 -0.5581078482 0.2500703030
C -12.0673999416 -0.9910129091 -0.0105132334
O -11.7396904956 -2.0879995807 -0.4271650311
N -11.1413752876 0.0329942232 0.2718674377
C -11.4413717306 1.3172053821 0.7589686667
C -10.2817121671 2.0329721143 0.9173056312
C -9.1843911509 1.1818546665 0.5142807107
C -7.7902494714 1.3640292239 0.4612319065
C -6.9606186003 0.3130212833 0.0196866687
C -5.4872110833 0.4864014595 -0.0396707828
C -4.6072964988 -0.5906507984 0.2241249449
C -3.2206415413 -0.4259358052 0.1719976002
C -2.6503364838 0.8271396830 -0.1469990509
C -1.2040404336 1.0399623072 -0.2108960967
N -0.6416129501 2.2039370612 -0.4949079857
N 0.6981960624 2.1798454410 -0.4983368135
C 1.2198812404 0.9963941577 -0.2172117013
C 2.6579337561 0.7315018481 -0.1607809002
C 3.1839919364 -0.5461912116 0.1364086524
C 4.5640015025 -0.7606603712 0.1809711905
C 5.4811768726 0.2880195682 -0.0697808910
C 6.9475827790 0.0585238442 -0.0274758188
C 7.8248547071 1.0789241766 0.4391784329
C 9.2125408440 0.9105868351 0.4964215302
C 9.7359270470 -0.3198142974 0.0675628304
C 8.8888664685 -1.3672681851 -0.4070891738
C 9.7442478769 -2.4752812639 -0.7697277824
C 11.0386355791 -2.0981157277 -0.5157585914
N 11.0597145934 -0.7884684183 -0.0053738713
C 12.2044120796 -0.0575172141 0.3715715613
O 12.1527828333 1.0777254985 0.8105475457
O 13.3055627744 -0.8053729396 0.1693936371
C 14.6565232647 -0.2812429253 0.4858997137
C 14.9493164479 0.9469256113 -0.3830174707
C 15.5640795607 -1.4536470009 0.1050239908
C 14.7525017316 0.0250532274 1.9846443188
C 7.4964503580 -1.1696257808 -0.4495275257
C 4.9442787445 1.5657738538 -0.3652539690
C 3.5672297023 1.7874183019 -0.4115437089
S -0.0137959338 -0.2303372859 0.0821592998
C -3.5223219176 1.9105098160 -0.4132329599
C -4.9060074123 1.7386145479 -0.3601306508
C -7.5604702161 -0.9189819547 -0.3691607074
C -8.9429964322 -1.1290592263 -0.3305850908
C -9.7476774570 -0.0685756263 0.1159450611
H -16.6136110634 -1.0883725096 0.3393793716
H -15.5553138272 -0.2313673010 1.5111348069
H -15.6972501432 0.3675633694 -0.1782930542
H -13.7249686135 -2.4374713943 -1.7570819110
H -15.5166904517 -2.3925922090 -1.6202029295
H -14.6222427510 -0.9074706986 -2.0773774329
H -15.3072842451 -3.2722256822 0.8605993744
H -13.5200356220 -3.2980031670 0.6700608266
H -14.2774966419 -2.3558108818 2.0070243461
H -12.4843658466 1.5875701196 0.9444665824
H -10.2122101435 3.0642001552 1.2814817384
H -7.3500799535 2.3160104518 0.7940074216
H -5.0198938257 -1.5715331058 0.5035008322
H -2.5670191240 -1.2843828778 0.3944040430
H 2.5006950115 -1.3841631512 0.3474806025
H 4.9430619804 -1.7594543629 0.4443299705
H 7.3958423615 2.0267005611 0.7970472319
H 9.8746791708 1.7011247320 0.8689672069
H 9.4281529726 -3.4439923069 -1.1730012685
H 11.9821829311 -2.6347646587 -0.6461459158
H 14.2722556635 1.7838706054 -0.1329320986
H 14.8357197905 0.6991227776 -1.4573450446
H 15.9944196761 1.2764145511 -0.2168685394
H 16.6231044211 -1.1910029558 0.2956584932
H 15.4538543460 -1.7026213557 -0.9688599943
H 15.3144991385 -2.3531129717 0.7017205468
H 15.7906574708 0.3212286104 2.2354353393
H 14.4997260007 -0.8737012992 2.5820246986
H 14.0729679395 0.8491059955 2.2685441891
H 6.8432029012 -1.9632324627 -0.8424165658
H 5.6271886164 2.3986097997 -0.5910828447
H 3.1604880798 2.7799637542 -0.6523258681
H -3.0812113045 2.8835177239 -0.6725189796
H -5.5597610859 2.5905038770 -0.6009450209
H -6.9174409883 -1.7291533269 -0.7440565665
H -9.3919153441 -2.0790198168 -0.6440059970
85
step=12 E=-2459.843664498749 Eh
C -15.6477279085 -0.5716704818 0.4508704077
C -14.4753977010 -1.4650648413 0.0370732212
C -14.5725142481 -1.8486627504 -1.4435976768
C -14.3660686120 -2.6888875801 0.9531304884
O -13.3047257088 -0.5782977181 0.2476912634
C -12.0548662204 -1.0055363616 -0.0115113788
O -11.7211487187 -2.1019050407 -0.4251775115
N -11.1341032397 0.0241232762 0.2685122021
C -11.4417936486 1.3079123442 0.7518720322
C -10.2873240937 2.0323963529 0.9087522853
C -9.1853389059 1.1860838492 0.5081779081
C -7.7925382954 1.3783055550 0.4556220962
C -6.9552818846 0.3318905513 0.0174850232
C -5.4828227339 0.5133696785 -0.0413511477
C -4.5990924386 -0.5607616458 0.2219084699
C -3.2130535897 -0.3911714117 0.1704614189
C -2.6483442641 0.8646945033 -0.1476152927
C -1.2023589682 1.0795370710 -0.2106350191
N -0.6391537080 2.2438589600 -0.4921161066
N 0.7006694888 2.2193878895 -0.4956258756
C 1.2224530342 1.0352527845 -0.2171093818
C 2.6599698131 0.7675905019 -0.1616005873
C 3.1797285462 -0.5128107702 0.1351541746
C 4.5587919332 -0.7329007449 0.1794610747
C 5.4801153013 0.3122954267 -0.0710599558
C 6.9450673894 0.0739285514 -0.0283336273
C 7.8296570613 1.0905906501 0.4331726887
C 9.2163311716 0.9147335245 0.4912382685
C 9.7301952199 -0.3216753704 0.0681027360
C 8.8768285668 -1.3663729837 -0.4011306939
C 9.7248855913 -2.4818870692 -0.7580518027
C 11.0218361361 -2.1119623986 -0.5062678219
N 11.0505456271 -0.7998233207 -0.0025629400
C 12.1996240538 -0.0734703866 0.3696282961
O 12.1543918391 1.0647511095 0.8015233867
O 13.2964359400 -0.8280170972 0.1710478605
C 14.6494141261 -0.3063693415 0.4839575801
C 14.9454893600 0.9158299363 -0.3920637187
C 15.5536352134 -1.4832973323 0.1100662216
C 14.7467496255 0.0089974892 1.9806362649
C 7.4857489106 -1.1599824076 -0.4443855744
C 4.9491028975 1.5927472449 -0.3662214615
C 3.5730427638 1.8203979657 -0.4122182433
S -0.0120132385 -0.1909810113 0.0802791703
C -3.5236402032 1.9456896862 -0.4132165308
C -4.9066440743 1.7683583055 -0.3605772613
C -7.5471774794 -0.9050755914 -0.3681760614
C -8.9280093713 -1.1258260460 -0.3302389626
C -9.7399005364 -0.0693955412 0.1130129144
H -16.6023698104 -1.1223551992 0.3397740987
H -15.5473503573 -0.2567526832 1.5082988500
H -15.6923507867 0.3358926034 -0.1829305742
H -13.7112443573 -2.4681861349 -1.7532949636
H -15.5030042820 -2.4257189574 -1.6155813059
H -14.6107495374 -0.9408194357 -2.0783204018
H -15.2886777155 -3.2972736384 0.8691623454
H -13.5016964847 -3.3193595053 0.6757515762
H -14.2588042818 -2.3743434038 2.0105302537
H -12.4863139973 1.5727200887 0.9367644428
H -10.2242104629 3.0649991670 1.2703506012
H -7.3597562074 2.3343427721 0.7864489291
H -5.0080587150 -1.5434404966 0.5003327450
H -2.5559512216 -1.2471991736 0.3921927885
H 2.4925822668 -1.3477990265 0.3458051922
H 4.9335438253 -1.7334447915 0.4423881592
H 7.4069486706 2.0428047183 0.7866659685
H 9.8840114403 1.7026787762 0.8595487330
H 9.4021497527 -3.4507007129 -1.1558873096
H 11.9615479676 -2.6559208046 -0.6339763948
H 14.2717845386 1.7565321479 -0.1452005524
H 14.8284089442 0.6626654663 -1.4647815012
H 15.9921612345 1.2423820946 -0.2298744680
H 16.6133568923 -1.2221961461 0.2989435780
H 15.4424719184 -1.7386254972 -0.9622475437
H 15.3017597397 -2.3785687611 0.7121181192
H 15.7862351858 0.3016847452 2.2301369556
H 14.4889222976 -0.8846148973 2.5835729988
H 14.0708604752 0.8380548328 2.2588611376
H 6.8276140452 -1.9516476702 -0.8330118004
H 5.6354039304 2.4227502146 -0.5921337182
H 3.1703830872 2.8147533376 -0.6525013698
H -3.0860250929 2.9205780349 -0.6714748907
H -5.5634710636 2.6179920804 -0.6009655265
H -6.8982744106 -1.7118486684 -0.7402308945
H -9.3700231341 -2.0799113326 -0.6410294692
85
step=13 E=-2459.843669288439 Eh
C -15.6475041276 -0.5660510000 0.4381723643
C -14.4751185170 -1.4611058089 0.0289069137
C -14.5691664074 -1.8485148471 -1.4509512550
C -14.3677848179 -2.6826911544 0.9482430049
O -13.3044284876 -0.5744859133 0.2392476033
C -12.0550631266 -1.0042066035 -0.0174435149
O -11.7213772394 -2.1015224915 -0.4286246197
N -11.1339736578 0.0249144105 0.2629524790
C -11.4421353028 1.3095730137 0.7434297813
C -10.2879228387 2.0341504344 0.9016246925
C -9.1855970194 1.1866079326 0.5044187708
C -7.7924997545 1.3767422507 0.4537998073
C -6.9541481878 0.3296312856 0.0190883187
C -5.4815842003 0.5109675697 -0.0365913821
C -4.5974519904 -0.5628096416 0.2269115246
C -3.2114643296 -0.3922123147 0.1784101538
C -2.6466651107 0.8642965582 -0.1369596286
C -1.2007975536 1.0804418595 -0.1969877066
N -0.6380404897 2.2460793341 -0.4739633020
N 0.7017704709 2.2222329848 -0.4772264477
C 1.2240174062 1.0372321272 -0.2031976650
C 2.6615611689 0.7695195210 -0.1503481053
C 3.1819711399 -0.5110842024 0.1443636561
C 4.5610569690 -0.7311131799 0.1863142791
C 5.4820252993 0.3143711434 -0.0645280829
C 6.9469763187 0.0761099711 -0.0239002519
C 7.8318400392 1.0946602399 0.4329578363
C 9.2184421816 0.9179063376 0.4888333380
C 9.7325746974 -0.3195010317 0.0689297187
C 8.8784601944 -1.3656287941 -0.3955213383
C 9.7252903921 -2.4826536445 -0.7505765646
C 11.0224100202 -2.1116470683 -0.5012036850
N 11.0527234041 -0.7979103332 -0.0019820350
C 12.2028439422 -0.0706457755 0.3650219313
O 12.1607404398 1.0695526777 0.7920630309
O 13.2980310735 -0.8272485098 0.1663971707
C 14.6522941898 -0.3051876265 0.4733414032
C 14.9467732010 0.9131997954 -0.4085246190
C 15.5545608083 -1.4843410168 0.1014699747
C 14.7543644414 0.0159421954 1.9684915678
C 7.4873994633 -1.1589715490 -0.4369324928
C 4.9503867656 1.5950393281 -0.3576395701
C 3.5742623671 1.8225134594 -0.4012941522
S -0.0099356992 -0.1896920441 0.0931845713
C -3.5222030799 1.9449896098 -0.4027440151
C -4.9051300087 1.7665254823 -0.3529735753
C -7.5450952408 -0.9080378384 -0.3659576066
C -8.9263895754 -1.1261518675 -0.3296300968
C -9.7396189412 -0.0692723046 0.1102372194
H -16.6019348587 -1.1168274838 0.3266983648
H -15.5489438562 -0.2482695740 1.4949274155
H -15.6905881433 0.3399213308 -0.1980363015
H -13.7085026226 -2.4708408788 -1.7567249274
H -15.5005886069 -2.4237330329 -1.6237943403
H -14.6033490946 -0.9423820628 -2.0883470069
H -15.2911710909 -3.2900249156 0.8656227361
H -13.5041106633 -3.3150211016 0.6729477584
H -14.2602492693 -2.3655453217 2.0048380356
H -12.4868769279 1.5751049272 0.9259278436
H -10.2251239618 3.0672239225 1.2619211846
H -7.3600020766 2.3330607007 0.7840050768
H -5.0060524198 -1.5461135106 0.5035058731
H -2.5543212397 -1.2480780921 0.4005185314
H 2.4952605888 -1.3462907487 0.3554431331
H 4.9359892369 -1.7318931247 0.4479365441
H 7.4100389188 2.0480498296 0.7843132082
H 9.8868014960 1.7069266330 0.8534454662
H 9.4018035642 -3.4526605022 -1.1448471657
H 11.9617285467 -2.6564409669 -0.6283075277
H 14.2757979802 1.7561827792 -0.1619623580
H 14.8242790528 0.6563501310 -1.4797538564
H 15.9947781974 1.2381539588 -0.2522404545
H 16.6149507972 -1.2232100772 0.2861766965
H 15.4401400666 -1.7440459352 -0.9694526580
H 15.3039335519 -2.3771173186 0.7077369037
H 15.7953163701 0.3065558371 2.2140098982
H 14.4954615862 -0.8744554812 2.5756953244
H 14.0814947738 0.8479227433 2.2453214186
H 6.8289113045 -1.9519836182 -0.8220903769
H 5.6360054694 2.4254615366 -0.5839378081
H 3.1712710706 2.8171062829 -0.6399322387
H -3.0848911604 2.9205685305 -0.6588193771
H -5.5617659872 2.6162172464 -0.5935390983
H -6.8962721783 -1.7159480042 -0.7356873134
H -9.3685617645 -2.0803485763 -0.6396503348
85
step=14 E=-2459.843670673553 Eh
C -15.6461799248 -0.5633136247 0.4362834563
C -14.4734926046 -1.4574956215 0.0264032025
C -14.5671247675 -1.8439761120 -1.4537543358
C -14.3652716893 -2.6796797077 0.9448841270
O -13.3036213055 -0.5704733685 0.2374032868
C -12.0543751282 -1.0002128796 -0.0193706348
O -11.7202121055 -2.0970919382 -0.4312218548
N -11.1334958663 0.0287351899 0.2620070827
C -11.4410532644 1.3133635450 0.7428488842
C -10.2864181233 2.0372233758 0.9012599809
C -9.1843927375 1.1894864502 0.5038396456
C -7.7912656921 1.3797080173 0.4537851312
C -6.9537367099 0.3321617468 0.0187856845
C -5.4810608632 0.5123105712 -0.0365598851
C -4.5982737296 -0.5631813511 0.2245170982
C -3.2120988363 -0.3941889874 0.1765688435
C -2.6456166111 0.8623160981 -0.1357724733
C -1.1996131659 1.0774586892 -0.1952638328
N -0.6365936972 2.2438791150 -0.4685015241
N 0.7031606860 2.2195973943 -0.4718060422
C 1.2248892416 1.0334764317 -0.2015177156
C 2.6624307789 0.7658421270 -0.1492307293
C 3.1840661194 -0.5147960933 0.1432060653
C 4.5632788613 -0.7339377925 0.1846609396
C 5.4837671322 0.3124325506 -0.0644358515
C 6.9490060843 0.0758677617 -0.0241678343
C 7.8338729135 1.0951876788 0.4309960279
C 9.2206630936 0.9202652958 0.4868984124
C 9.7354141597 -0.3173048537 0.0682705380
C 8.8816439529 -1.3644896593 -0.3945937806
C 9.7293822492 -2.4812547781 -0.7482545745
C 11.0263719715 -2.1094269503 -0.4995482073
N 11.0558667649 -0.7950592812 -0.0021824185
C 12.2058789685 -0.0665444535 0.3629107921
O 12.1645516231 1.0744605856 0.7879165553
O 13.3008017696 -0.8239185254 0.1658615166
C 14.6553199996 -0.3018155095 0.4711728428
C 14.9504906968 0.9142385279 -0.4137849470
C 15.5567523070 -1.4825072679 0.1018076922
C 14.7581492605 0.0227016789 1.9655957503
C 7.4903643866 -1.1591711881 -0.4358918415
C 4.9508729483 1.5930522886 -0.3553553438
C 3.5745942782 1.8196466854 -0.3984670152
S -0.0093369648 -0.1942897590 0.0900014321
C -3.5200298404 1.9444873949 -0.3990955534
C -4.9032118578 1.7679587972 -0.3499944642
C -7.5458700831 -0.9047982923 -0.3666681983
C -8.9270252553 -1.1234461975 -0.3310094074
C -9.7392110750 -0.0659703228 0.1092462226
H -16.6001439145 -1.1147313103 0.3244543164
H -15.5477946690 -0.2460500391 1.4932287519
H -15.6898779218 0.3430942616 -0.1992954210
H -13.7070267209 -2.4671786123 -1.7594031664
H -15.4992351493 -2.4177773175 -1.6274628725
H -14.5995898998 -0.9374556687 -2.0907135259
H -15.2889849202 -3.2865921061 0.8631907441
H -13.5021113419 -3.3121068610 0.6680898423
H -14.2560283053 -2.3632239924 2.0015273444
H -12.4856171017 1.5794377217 0.9255340211
H -10.2231570171 3.0700935543 1.2620064423
H -7.3585641592 2.3357599217 0.7845238213
H -5.0080101367 -1.5466185379 0.4989412432
H -2.5561004480 -1.2513875254 0.3968729770
H 2.4980735870 -1.3508892470 0.3530614839
H 4.9386665491 -1.7349225497 0.4447724974
H 7.4116092936 2.0486784782 0.7814159684
H 9.8884153467 1.7103486042 0.8503084913
H 9.4064593348 -3.4519845029 -1.1411634036
H 11.9659222542 -2.6539935329 -0.6260352623
H 14.2815430945 1.7590725501 -0.1680599902
H 14.8256226573 0.6553899652 -1.4842723845
H 15.9993808664 1.2373569569 -0.2599385000
H 16.6173291560 -1.2215751498 0.2855593689
H 15.4419009769 -1.7448182176 -0.9684511875
H 15.3058320903 -2.3737646555 0.7102152263
H 15.7998883639 0.3110397157 2.2102627659
H 14.4968178922 -0.8655183283 2.5749684696
H 14.0874573619 0.8570464004 2.2406092805
H 6.8326078984 -1.9532775040 -0.8200280052
H 5.6356336393 2.4244741995 -0.5805286302
H 3.1710475822 2.8144187271 -0.6354004671
H -3.0815199139 2.9201278776 -0.6528437130
H -5.5586200511 2.6191092255 -0.5887479816
H -6.8973425047 -1.7127664397 -0.7366959684
H -9.3694937336 -2.0773825816 -0.6415325942
85
step=15 E=-2459.843670365128 Eh
C -15.6428068574 -0.5627409852 0.4416517487
C -14.4702722232 -1.4554842777 0.0280835310
C -14.5664850138 -1.8390550575 -1.4527689825
C -14.3605097101 -2.6796720939 0.9438447218
O -13.3007088456 -0.5686033110 0.2391655670
C -12.0513003517 -0.9969751069 -0.0194741550
O -11.7179380566 -2.0930431747 -0.4339680421
N -11.1302432157 0.0316594445 0.2627958021
C -11.4374929645 1.3155247428 0.7457998251
C -10.2824129281 2.0388465635 0.9037055225
C -9.1805285176 1.1920144807 0.5040619808
C -7.7873968852 1.3822048822 0.4530569873
C -6.9505941324 0.3350424516 0.0158002432
C -5.4779620869 0.5153287969 -0.0403804075
C -4.5946508755 -0.5606783417 0.2169382472
C -3.2085644630 -0.3911458622 0.1682583082
C -2.6426341152 0.8664074672 -0.1409929061
C -1.1966664516 1.0816296548 -0.2009587833
N -0.6335368673 2.2489991854 -0.4702018770
N 0.7061672562 2.2246731384 -0.4738066046
C 1.2279851668 1.0375851273 -0.2076468960
C 2.6654898408 0.7697989834 -0.1553868324
C 3.1864936914 -0.5115988046 0.1350040134
C 4.5655871244 -0.7313459629 0.1768105326
C 5.4865554455 0.3151949835 -0.0699788345
C 6.9516320680 0.0778331362 -0.0290369023
C 7.8363124925 1.0973662630 0.4260782602
C 9.2229801960 0.9219393350 0.4830875270
C 9.7377542152 -0.3160807761 0.0657133504
C 8.8840920593 -1.3634264539 -0.3971205655
C 9.7314717792 -2.4810737591 -0.7488579753
C 11.0282150511 -2.1089773052 -0.4991718812
N 11.0581688337 -0.7942636257 -0.0027826566
C 12.2082129597 -0.0656538022 0.3623682994
O 12.1657534045 1.0760953356 0.7852351098
O 13.3035461518 -0.8235095822 0.1688131841
C 14.6575460727 -0.3014119075 0.4750625500
C 14.9549325774 0.9127564404 -0.4118649380
C 15.5592761829 -1.4831425763 0.1094830827
C 14.7585899717 0.0260854136 1.9690314123
C 7.4929050470 -1.1576661939 -0.4395701771
C 4.9542171061 1.5965065512 -0.3589451612
C 3.5780441585 1.8238164074 -0.4023534992
S -0.0063397881 -0.1915529172 0.0772500075
C -3.5173823175 1.9492278722 -0.4005769586
C -4.9004563147 1.7719049442 -0.3507480529
C -7.5434124987 -0.9012350137 -0.3708672780
C -8.9245438597 -1.1198206818 -0.3342238255
C -9.7360585568 -0.0627789658 0.1083564775
H -16.5966790191 -1.1144186259 0.3302635632
H -15.5428722747 -0.2474617832 1.4990666314
H -15.6880091174 0.3449953503 -0.1919582985
H -13.7080263177 -2.4634045400 -1.7607029521
H -15.5000878969 -2.4104097346 -1.6265064532
H -14.5975710941 -0.9312020635 -2.0879439424
H -15.2851695868 -3.2853494665 0.8638801279
H -13.4988395170 -3.3124871351 0.6632416107
H -14.2474689709 -2.3653546408 2.0007572584
H -12.4817717927 1.5815691121 0.9302060144
H -10.2187613613 3.0712099487 1.2658241544
H -7.3542985594 2.3377837063 0.7847278665
H -5.0038132006 -1.5450003222 0.4890817614
H -2.5521476593 -1.2487940931 0.3856626280
H 2.5000768638 -1.3478128540 0.3431030609
H 4.9403693681 -1.7329456690 0.4354765610
H 7.4141204750 2.0512511486 0.7755593259
H 9.8907416754 1.7121040531 0.8463558550
H 9.4086417860 -3.4521130291 -1.1411287846
H 11.9675902136 -2.6541371023 -0.6243190523
H 14.2876552616 1.7593258378 -0.1675500166
H 14.8292209471 0.6524429798 -1.4819267077
H 16.0045146657 1.2339022504 -0.2587103572
H 16.6196531301 -1.2221592361 0.2943297137
H 15.4459892105 -1.7476760598 -0.9604239872
H 15.3071514349 -2.3731585586 0.7192571984
H 15.8007524293 0.3118115554 2.2148926498
H 14.4934101148 -0.8600684263 2.5797955796
H 14.0897502549 0.8628603303 2.2411897524
H 6.8352879094 -1.9519286184 -0.8236733739
H 5.6392937570 2.4281290186 -0.5824694876
H 3.1750265725 2.8191900425 -0.6377308164
H -3.0794027456 2.9257414804 -0.6519491332
H -5.5562232462 2.6236048654 -0.5865883517
H -6.8954231960 -1.7087593723 -0.7428286175
H -9.3674971153 -2.0732221394 -0.6457694973
85
step=16 E=-2459.843671313894 Eh
C -15.6422122149 -0.5573038822 0.4413503303
C -14.4704910579 -1.4509125627 0.0269005048
C -14.5679814499 -1.8337550031 -1.4541127425
C -14.3620384898 -2.6757878467 0.9419843386
O -13.3000087790 -0.5655039494 0.2378598208
C -12.0507516577 -0.9944373127 -0.0211990430
O -11.7182129159 -2.0904400469 -0.4365049128
N -11.1290321156 0.0334898092 0.2616291168
C -11.4353567461 1.3173129993 0.7453495564
C -10.2801222849 2.0402730181 0.9038624202
C -9.1788575929 1.1927899293 0.5037473404
C -7.7855884975 1.3819618475 0.4529480745
C -6.9490253667 0.3347372251 0.0152234621
C -5.4762738457 0.5144248444 -0.0406480279
C -4.5933147264 -0.5618602968 0.2167948154
C -3.2071143448 -0.3929062277 0.1684967326
C -2.6406253088 0.8644702178 -0.1405247192
C -1.1946137188 1.0796621983 -0.2001658109
N -0.6315358191 2.2472523184 -0.4687037199
N 0.7081451450 2.2229990639 -0.4723122067
C 1.2300280871 1.0357448485 -0.2068787001
C 2.6675948184 0.7680955122 -0.1550206573
C 3.1891398200 -0.5130497875 0.1355880194
C 4.5683648964 -0.7322262883 0.1769430186
C 5.4889748834 0.3145016082 -0.0704633903
C 6.9541682416 0.0775775751 -0.0298862866
C 7.8385782086 1.0973358964 0.4253256677
C 9.2253340288 0.9221964251 0.4820648045
C 9.7404437230 -0.3155794517 0.0643751730
C 8.8869923004 -1.3629533403 -0.3985578575
C 9.7353165110 -2.4799331844 -0.7502626353
C 11.0322732184 -2.1082876139 -0.5008755119
N 11.0609494458 -0.7936071491 -0.0042721055
C 12.2104875084 -0.0644143715 0.3612107827
O 12.1675800732 1.0774078767 0.7837559255
O 13.3063110150 -0.8217007230 0.1680699260
C 14.6594663392 -0.2985309099 0.4746406827
C 14.9561065550 0.9159180140 -0.4121629726
C 15.5627006175 -1.4793006452 0.1095694100
C 14.7597879718 0.0293423825 1.9685885704
C 7.4957149615 -1.1577158672 -0.4407853148
C 4.9561625977 1.5955701440 -0.3596380696
C 3.5798411120 1.8222501819 -0.4026078155
S -0.0042289928 -0.1935629301 0.0775322604
C -3.5150874596 1.9475010332 -0.4002414143
C -4.8982875391 1.7708300515 -0.3508144517
C -7.5421425011 -0.9011592352 -0.3722712128
C -8.9235145319 -1.1185661449 -0.3357417269
C -9.7348631421 -0.0615438769 0.1072685128
H -16.5967628114 -1.1079066446 0.3301293965
H -15.5415224153 -0.2426196317 1.4988732323
H -15.6867833306 0.3507847303 -0.1918041393
H -13.7107311951 -2.4594735141 -1.7626372217
H -15.5026888947 -2.4033276029 -1.6278119073
H -14.5976165580 -0.9255192532 -2.0888257862
H -15.2877488972 -3.2799291684 0.8624268409
H -13.5015779019 -3.3098416234 0.6604926652
H -14.2477172168 -2.3620950969 1.9989546152
H -12.4795217440 1.5837643953 0.9298188687
H -10.2160166559 3.0724518620 1.2664969551
H -7.3520065137 2.3371411819 0.7851527181
H -5.0029443782 -1.5460603631 0.4887293543
H -2.5510817824 -1.2508266078 0.3860435375
H 2.5030985477 -1.3494476230 0.3442504138
H 4.9436261744 -1.7336218963 0.4357585196
H 7.4161327242 2.0510413622 0.7750465062
H 9.8929392269 1.7124907232 0.8453817398
H 9.4127370652 -3.4509718463 -1.1427383345
H 11.9718015107 -2.6531725293 -0.6261928688
H 14.2882895164 1.7620436863 -0.1677159154
H 14.8304036936 0.6555926074 -1.4822320504
H 16.0055269190 1.2376908937 -0.2591016348
H 16.6227453584 -1.2171835230 0.2948061119
H 15.4500697994 -1.7440386676 -0.9603640714
H 15.3112234987 -2.3695034096 0.7193501526
H 15.8017610702 0.3154317672 2.2149079905
H 14.4945506373 -0.8567905433 2.5793716515
H 14.0905062402 0.8659411859 2.2402499061
H 6.8382697172 -1.9521174778 -0.8249353317
H 5.6408832848 2.4273705432 -0.5836599844
H 3.1763951248 2.8174207920 -0.6381514639
H -3.0766905591 2.9238774741 -0.6514566970
H -5.5536918643 2.6227912020 -0.5867871069
H -6.8945103919 -1.7088345873 -0.7446130187
H -9.3669292958 -2.0715443695 -0.6479000871
85
step=17 E=-2459.843671792804 Eh
C -15.6406733491 -0.5550463004 0.4376674392
C -14.4686305610 -1.4487373333 0.0240185625
C -14.5655632607 -1.8322100694 -1.4568672792
C -14.3606390573 -2.6733208063 0.9395517384
O -13.2982141852 -0.5634709601 0.2348927726
C -12.0489827101 -0.9928716866 -0.0237334972
O -11.7164665913 -2.0890513685 -0.4385906236
N -11.1272171599 0.0349359482 0.2591968165
C -11.4340769456 1.3188271530 0.7424443691
C -10.2791159101 2.0420397696 0.9015980970
C -9.1776002912 1.1944731253 0.5022802166
C -7.7843621703 1.3840007060 0.4523981769
C -6.9471657406 0.3369464403 0.0154434051
C -5.4743771879 0.5166786747 -0.0396978606
C -4.5918230371 -0.5595486510 0.2192803927
C -3.2055704829 -0.3907309670 0.1717336076
C -2.6387039772 0.8662783004 -0.1380516749
C -1.1926382457 1.0813573067 -0.1969346780
N -0.6294348806 2.2488629665 -0.4655309552
N 0.7102293771 2.2244818371 -0.4689578926
C 1.2319420968 1.0372003289 -0.2033720421
C 2.6694995912 0.7693738682 -0.1520208724
C 3.1912829548 -0.5113727203 0.1398822102
C 4.5705302445 -0.7306117574 0.1806535838
C 5.4910079405 0.3157799523 -0.0686040216
C 6.9562896469 0.0790829875 -0.0287005726
C 7.8412346152 1.0988275282 0.4255098367
C 9.2280271619 0.9236514024 0.4814663542
C 9.7424718270 -0.3144287311 0.0639157320
C 8.8887396462 -1.3619986228 -0.3981071028
C 9.7361690340 -2.4795733005 -0.7500636690
C 11.0331498212 -2.1075768921 -0.5013410348
N 11.0628171459 -0.7926852862 -0.0053019464
C 12.2126899187 -0.0637220130 0.3593026549
O 12.1701811539 1.0784035731 0.7809857468
O 13.3082410942 -0.8214697441 0.1661021555
C 14.6614147964 -0.2982740906 0.4715984742
C 14.9578129014 0.9155673001 -0.4161247442
C 15.5645526939 -1.4792699573 0.1069340265
C 14.7625968785 0.0306302012 1.9652679784
C 7.4974925619 -1.1564088192 -0.4394283322
C 4.9579656720 1.5964645143 -0.3590169171
C 3.5816304517 1.8231835501 -0.4014516727
S -0.0024338933 -0.1917289468 0.0822351630
C -3.5128695353 1.9491734658 -0.3993157591
C -4.8961315345 1.7727748965 -0.3506458041
C -7.5397470869 -0.8991675996 -0.3721390625
C -8.9210839482 -1.1170625236 -0.3365351151
C -9.7329466067 -0.0601110400 0.1056794976
H -16.5952241327 -1.1056478364 0.3263755735
H -15.5403326682 -0.2399505636 1.4950885716
H -15.6850334366 0.3527481443 -0.1959040952
H -13.7084848978 -2.4585442116 -1.7646159147
H -15.5005050851 -2.4012885597 -1.6309094521
H -14.5943113794 -0.9242017067 -2.0919263541
H -15.2865625650 -3.2771752536 0.8602572102
H -13.5003935492 -3.3077620364 0.6583250781
H -14.2462732302 -2.3592113212 1.9963808021
H -12.4784497004 1.5850303419 0.9261045943
H -10.2154073945 3.0743365027 1.2639695941
H -7.3512350142 2.3393485828 0.7846674127
H -5.0018211116 -1.5434442966 0.4917577236
H -2.5497805153 -1.2485092821 0.3905127551
H 2.5053652496 -1.3474676862 0.3500985541
H 4.9459583140 -1.7316806857 0.4404672016
H 7.4191235825 2.0527163195 0.7751001514
H 9.8959762705 1.7140111802 0.8440170455
H 9.4132247587 -3.4506753704 -1.1420962399
H 11.9725857288 -2.6525370445 -0.6269250523
H 14.2905555145 1.7620876502 -0.1715624731
H 14.8310875307 0.6546326716 -1.4859148343
H 16.0075091890 1.2370363527 -0.2642460072
H 16.6246914697 -1.2170689919 0.2914913756
H 15.4513767980 -1.7446737681 -0.9627650515
H 15.3132925181 -2.3690036216 0.7174660162
H 15.8048522298 0.3161980929 2.2110457971
H 14.4970622331 -0.8549268153 2.5767374940
H 14.0939632696 0.8678441882 2.2365830922
H 6.8396019664 -1.9507958112 -0.8228162328
H 5.6425936657 2.4279430549 -0.5844733826
H 3.1780659267 2.8180629527 -0.6379894603
H -3.0741469101 2.9252366468 -0.6511452969
H -5.5513201005 2.6245522475 -0.5878488678
H -6.8915942061 -1.7067273945 -0.7438136539
H -9.3639682138 -2.0702423563 -0.6488021548
85
step=18 E=-2459.843671440158 Eh
C -15.6394783954 -0.5580935310 0.4377817818
C -14.4667182198 -1.4508952614 0.0243468963
C -14.5631977625 -1.8346334474 -1.4564877109
C -14.3577552502 -2.6752447205 0.9400515993
O -13.2970331560 -0.5646334492 0.2351927692
C -12.0475822079 -0.9933399825 -0.0233682435
O -11.7142487308 -2.0893541193 -0.4380259219
N -11.1264835839 0.0350693807 0.2593845316
C -11.4338187894 1.3189449938 0.7424267022
C -10.2790118118 2.0424621898 0.9012975029
C -9.1771227012 1.1953642684 0.5020822705
C -7.7839477072 1.3853311080 0.4520161490
C -6.9466185607 0.3383709963 0.0151561492
C -5.4739156335 0.5186674398 -0.0401487270
C -4.5908275287 -0.5570620925 0.2190120374
C -3.2046691149 -0.3875999730 0.1712728365
C -2.6385465449 0.8696291303 -0.1389056792
C -1.1925325982 1.0849781757 -0.1979061404
N -0.6293344759 2.2523982228 -0.4667809260
N 0.7103479019 2.2280537283 -0.4702192478
C 1.2321304200 1.0408876120 -0.2043634396
C 2.6696440025 0.7728760168 -0.1529227095
C 3.1907106237 -0.5080455266 0.1394019184
C 4.5698502146 -0.7278683592 0.1803335155
C 5.4907166015 0.3181008780 -0.0691784457
C 6.9558404019 0.0806134519 -0.0290826760
C 7.8410617396 1.1001182575 0.4250356030
C 9.2277552124 0.9242435413 0.4811626779
C 9.7418709796 -0.3140902365 0.0639724094
C 8.8876698152 -1.3613456271 -0.3979295787
C 9.7347081661 -2.4793104122 -0.7495385559
C 11.0318157110 -2.1078577563 -0.5007364885
N 11.0620525650 -0.7928792273 -0.0049702589
C 12.2122256477 -0.0644215135 0.3596157750
O 12.1706510955 1.0778104986 0.7811103773
O 13.3072363421 -0.8230116181 0.1665918161
C 14.6608738461 -0.3008038565 0.4720092579
C 14.9582574875 0.9126245686 -0.4159639634
C 15.5630413060 -1.4826075862 0.1075656854
C 14.7623099068 0.0282858399 1.9656279224
C 7.4965109522 -1.1552120722 -0.4394900167
C 4.9583503354 1.5989764138 -0.3600079846
C 3.5821405689 1.8263195123 -0.4026150998
S -0.0022475286 -0.1879846526 0.0815534617
C -3.5131392184 1.9521355111 -0.4003756863
C -4.8962796281 1.7749473914 -0.3514749044
C -7.5388973100 -0.8979685370 -0.3721145967
C -8.9201510833 -1.1162683556 -0.3363177798
C -9.7321884826 -0.0594354968 0.1057909582
H -16.5935471784 -1.1095037563 0.3264906687
H -15.5394666265 -0.2427761791 1.4951663146
H -15.6845248365 0.3495661248 -0.1959311771
H -13.7055932245 -2.4603271124 -1.7640655906
H -15.4976652877 -2.4044804190 -1.6305549786
H -14.5926272363 -0.9267373665 -2.0916670189
H -15.2831728563 -3.2798793584 0.8608078717
H -13.4969759791 -3.3090135560 0.6589466544
H -14.2437192014 -2.3609002414 1.9968409663
H -12.4782762090 1.5847941751 0.9261148340
H -10.2156400969 3.0748396081 1.2634628064
H -7.3509985897 2.3408458048 0.7840376763
H -5.0003271542 -1.5410751653 0.4917822534
H -2.5484153728 -1.2449830832 0.3901956829
H 2.5043785857 -1.3437475160 0.3498109669
H 4.9448657610 -1.7290075713 0.4404596009
H 7.4193103097 2.0542608934 0.7743671817
H 9.8959633175 1.7144019134 0.8436328779
H 9.4114068586 -3.4503464717 -1.1414226374
H 11.9710498105 -2.6532245758 -0.6260811344
H 14.2917183363 1.7597432530 -0.1715579742
H 14.8313236227 0.6515796074 -1.4856984111
H 16.0082192294 1.2332717552 -0.2641840776
H 16.6233830592 -1.2212317798 0.2920755090
H 15.4496503437 -1.7481123930 -0.9620802502
H 15.3110545381 -2.3720123372 0.7182681515
H 15.8047943345 0.3130270651 2.2113898599
H 14.4960535157 -0.8569433733 2.5772515397
H 14.0943857466 0.8661064309 2.2367851162
H 6.8383018404 -1.9493728633 -0.8227912521
H 5.6434146437 2.4300440559 -0.5856420644
H 3.1789844415 2.8212857920 -0.6394651049
H -3.0749036565 2.9283382129 -0.6525020592
H -5.5519485808 2.6263089242 -0.5888141283
H -6.8905719347 -1.7054150783 -0.7437033320
H -9.3628217268 -2.0696296833 -0.6483454867
85
step=19 E=-2459.843670818486 Eh
C -15.6353108363 -0.5542925835 0.4361190495
C -14.4625110256 -1.4467759304 0.0220543965
C -14.5591486663 -1.8296333459 -1.4590279097
C -14.3534803850 -2.6716852365 0.9370315357
O -13.2930022781 -0.5606399879 0.2332853032
C -12.0435744261 -0.9893541143 -0.0255306683
O -11.7103082507 -2.0852024292 -0.4406616064
N -11.1224795283 0.0388757632 0.2576670834
C -11.4297783315 1.3225833479 0.7412507108
C -10.2749259933 2.0458990591 0.9006005287
C -9.1730459505 1.1989274849 0.5010914548
C -7.7798606252 1.3888372195 0.4512612195
C -6.9426086216 0.3419730296 0.0140247645
C -5.4698943474 0.5222442282 -0.0411536865
C -4.5868335961 -0.5533566673 0.2185565601
C -3.2006650900 -0.3838939582 0.1709128262
C -2.6345840770 0.8732264879 -0.1397283667
C -1.1885585843 1.0885722022 -0.1986317323
N -0.6252979066 2.2560300808 -0.4671194511
N 0.7143847826 2.2316290139 -0.4705281263
C 1.2361192760 1.0443850099 -0.2050279144
C 2.6736148723 0.7762314102 -0.1536795396
C 3.1944539698 -0.5044575680 0.1399974790
C 4.5735732338 -0.7244731549 0.1807968395
C 5.4945023241 0.3210734843 -0.0701729492
C 6.9595730325 0.0832530054 -0.0302291527
C 7.8449828304 1.1027203378 0.4235301270
C 9.2316595647 0.9265858676 0.4794839543
C 9.7454703729 -0.3119315828 0.0625076095
C 8.8910263437 -1.3591455211 -0.3990726213
C 9.7377307413 -2.4773976886 -0.7505581419
C 11.0348911388 -2.1061158674 -0.5018495030
N 11.0655607883 -0.7909914446 -0.0064387434
C 12.2158853696 -0.0628052600 0.3580441738
O 12.1748431953 1.0796562043 0.7789055305
O 13.3106248665 -0.8221119391 0.1658406612
C 14.6642680038 -0.3003261878 0.4711533094
C 14.9625111525 0.9123623795 -0.4176007179
C 15.5660609306 -1.4827792559 0.1077472044
C 14.7656058007 0.0297527836 1.9645969434
C 7.4999031214 -1.1527793860 -0.4404618041
C 4.9623903161 1.6017580596 -0.3623001621
C 3.5862100054 1.8292579160 -0.4047956694
S 0.0016705931 -0.1845853159 0.0803329917
C -3.5091467645 1.9556254102 -0.4017543790
C -4.8922822030 1.7784193325 -0.3529308866
C -7.5349158102 -0.8941492113 -0.3738296973
C -8.9161998994 -1.1123754779 -0.3382841574
C -9.7281618406 -0.0556546802 0.1041790243
H -16.5893235141 -1.1057443981 0.3246687617
H -15.5351685317 -0.2395448988 1.4936637846
H -15.6805331170 0.3536847923 -0.1971309327
H -13.7021663619 -2.4560696607 -1.7668229967
H -15.4942273798 -2.3983119908 -1.6336262516
H -14.5874997309 -0.9213258330 -2.0936693298
H -15.2793225772 -3.2757299792 0.8582501089
H -13.4932819939 -3.3058029987 0.6549510844
H -14.2385024177 -2.3579326553 1.9938962179
H -12.4742880008 1.5882940821 0.9248445551
H -10.2115523170 3.0781435820 1.2631375984
H -7.3467915998 2.3441505176 0.7837023046
H -4.9963893298 -1.5372577853 0.4916465665
H -2.5444153281 -1.2411569357 0.3903094081
H 2.5080225184 -1.3397589601 0.3516608125
H 4.9485463261 -1.7253563135 0.4419734527
H 7.4234230412 2.0570123646 0.7726857247
H 9.9000271865 1.7167407619 0.8416573364
H 9.4142413573 -3.4484037763 -1.1423599429
H 11.9740831932 -2.6515801217 -0.6270801697
H 14.2970976044 1.7603810141 -0.1732770732
H 14.8347177630 0.6508731458 -1.4871269704
H 16.0129405619 1.2318826209 -0.2666605949
H 16.6264557334 -1.2217221676 0.2923331757
H 15.4528002962 -1.7489522638 -0.9617460532
H 15.3135221279 -2.3716349115 0.7190183488
H 15.8084489949 0.3129445524 2.2106392330
H 14.4977199656 -0.8546315300 2.5767339962
H 14.0989233427 0.8688340968 2.2348888085
H 6.8414072725 -1.9468352030 -0.8234867447
H 5.6476083922 2.4324023024 -0.5890315217
H 3.1831177699 2.8240041413 -0.6426570774
H -3.0708687188 2.9317113105 -0.6542438460
H -5.5479986712 2.6296209172 -0.5907088592
H -6.8865905231 -1.7014848588 -0.7456580958
H -9.3588790949 -2.0655743338 -0.6507864688
85
step=20 E=-2459.843670783963 Eh
C -15.6325218067 -0.5507961781 0.4346089975
C -14.4598341865 -1.4433746470 0.0204901989
C -14.5562714194 -1.8257900075 -1.4607112920
C -14.3510306371 -2.6684646827 0.9352318307
O -13.2902533812 -0.5573066868 0.2321517038
C -12.0408400432 -0.9860650329 -0.0266541131
O -11.7077207730 -2.0818895089 -0.4419770478
N -11.1196583147 0.0420191378 0.2567385191
C -11.4268134625 1.3256473499 0.7406727115
C -10.2718754149 2.0487673558 0.9002478961
C -9.1700622883 1.2017982137 0.5005484759
C -7.7768519540 1.3915246227 0.4507258571
C -6.9397442900 0.3446570900 0.0132081448
C -5.4670137661 0.5247566489 -0.0420084757
C -4.5841497818 -0.5508936722 0.2181027292
C -3.1979599906 -0.3815995845 0.1703724397
C -2.6316966655 0.8753151099 -0.1407501076
C -1.1856371889 1.0904731997 -0.1997689345
N -0.6222443025 2.2577849511 -0.4684931919
N 0.7174626936 2.2332210205 -0.4718648041
C 1.2390346385 1.0459962466 -0.2060881771
C 2.6765079324 0.7776834830 -0.1545618128
C 3.1972731495 -0.5028333495 0.1399793561
C 4.5763738469 -0.7230039211 0.1808961301
C 5.4973503912 0.3222987530 -0.0708211442
C 6.9624223252 0.0844753142 -0.0308626429
C 7.8478650841 1.1038338086 0.4230288494
C 9.2345505019 0.9276579078 0.4789330534
C 9.7483297474 -0.3108062610 0.0617724633
C 8.8938162930 -1.3578978645 -0.3999533682
C 9.7405529113 -2.4760559876 -0.7516656275
C 11.0377616690 -2.1049372744 -0.5030194388
N 11.0684203174 -0.7898819694 -0.0073544841
C 12.2187480314 -0.0618485414 0.3574227688
O 12.1776358167 1.0805277511 0.7785089496
O 13.3135501962 -0.8211045199 0.1652021852
C 14.6672052862 -0.2992807891 0.4707376845
C 14.9653710130 0.9136080259 -0.4177617237
C 15.5690160898 -1.4816470578 0.1071205753
C 14.7683526532 0.0304642613 1.9642674194
C 7.5026978117 -1.1515106738 -0.4413005313
C 4.9653223326 1.6028269155 -0.3637786626
C 3.5891735842 1.8304800050 -0.4064035769
S 0.0044287409 -0.1828638740 0.0792758923
C -3.5061031903 1.9577487558 -0.4031662971
C -4.8892601234 1.7807523490 -0.3542524039
C -7.5321763488 -0.8912919843 -0.3749559709
C -8.9135054645 -1.1092993244 -0.3394463579
C -9.7253437680 -0.0526020465 0.1032838391
H -16.5865636345 -1.1021408062 0.3229243815
H -15.5324684175 -0.2362925728 1.4922356743
H -15.6775644868 0.3573051427 -0.1984771917
H -13.6995056891 -2.4525128585 -1.7685150528
H -15.4915610079 -2.3940247191 -1.6356544901
H -14.5841723646 -0.9173008146 -2.0951142982
H -15.2770368916 -3.2722583010 0.8563772133
H -13.4910118514 -3.3027618155 0.6530201900
H -14.2360148741 -2.3549417521 1.9921621119
H -12.4713250959 1.5913544146 0.9242539515
H -10.2083860498 3.0809221962 1.2630230390
H -7.3435889892 2.3466738984 0.7833952157
H -4.9938722921 -1.5346337559 0.4915404615
H -2.5418203798 -1.2388639910 0.3900908532
H 2.5107658618 -1.3379117185 0.3522751147
H 4.9513052860 -1.7237329748 0.4427354398
H 7.4263070105 2.0580796823 0.7723238416
H 9.9029225977 1.7177542901 0.8412224681
H 9.4170134705 -3.4469659495 -1.1436631017
H 11.9769790150 -2.6503267683 -0.6283887252
H 14.3000941299 1.7616371146 -0.1731048206
H 14.8374249801 0.6523877588 -1.4873377718
H 16.0158610891 1.2329950075 -0.2669402369
H 16.6293864460 -1.2205942999 0.2918421908
H 15.4558446304 -1.7475822585 -0.9624414619
H 15.3164622686 -2.3706436807 0.7181802182
H 15.8112297588 0.3133274545 2.2105591419
H 14.5001989281 -0.8540018684 2.5761726029
H 14.1018505489 0.8696618465 2.2346346801
H 6.8441171504 -1.9454579084 -0.8244106101
H 5.6506756950 2.4332181605 -0.5910382470
H 3.1861478028 2.8251001461 -0.6449124220
H -3.0676691533 2.9336718699 -0.6560171921
H -5.5449136028 2.6319278538 -0.5923142154
H -6.8839454113 -1.6986339729 -0.7469455982
H -9.3563091533 -2.0623651593 -0.6521683284
