90
0 1 Before single point calculation
C 1.221671855 -3.481368551 3.123565967
C 0.517141163 -2.467710340 2.281332091
C -0.912095092 -2.353456215 2.216252554
C -1.353039471 -1.339515393 1.386543271
C -2.737138156 -0.923599951 1.098682902
C -3.716911546 -1.010991447 2.098302658
C -5.043313026 -0.639723200 1.844092694
C -5.429512225 -0.169629171 0.581630655
C -6.820417675 0.215211286 0.314052301
C -7.842461614 -0.739563022 0.327395457
C -9.176589985 -0.398260448 0.070529264
C -9.488797554 0.945832488 -0.202757850
C -8.489963054 1.924526342 -0.218961750
C -9.111888187 3.162784063 -0.509326587
C -10.456136055 2.926780059 -0.661558252
N -10.710545614 1.571236073 -0.484989353
C -11.975214227 0.946583174 -0.572376591
O -12.112457252 -0.258739864 -0.436686350
O -12.935335042 1.875619226 -0.812582859
C -14.323539032 1.476876005 -0.938754783
C -15.087667016 2.789772963 -1.163928600
C -14.524668320 0.572245568 -2.158609222
C -14.841056515 0.823049816 0.347212363
C -7.152477161 1.552339861 0.036092843
C -4.452394875 -0.080292532 -0.418912066
C -3.126348425 -0.454643984 -0.164031043
S -0.020268329 -0.518901552 0.690730596
C 1.129482215 -1.520292643 1.473535769
C 2.558221850 -1.300218191 1.213543127
C 3.155395296 -0.054266058 1.450494635
C 4.520480940 0.139244423 1.209159879
C 5.322545934 -0.907715187 0.732558808
C 6.755627057 -0.710015840 0.486112354
C 7.198453953 0.129893070 -0.541363617
C 8.562112663 0.325704112 -0.798150704
C 9.502493091 -0.338467505 0.011044278
C 9.090073637 -1.175387724 1.053604157
C 10.252286635 -1.674518956 1.688446259
C 11.337545635 -1.150451582 1.032408828
N 10.903325761 -0.336345903 -0.008097322
C 11.731466173 0.359894222 -0.917484637
O 11.270132790 1.026238128 -1.830921880
O 13.037670547 0.158247576 -0.605622888
C 14.084355148 0.752383600 -1.414924241
C 13.997681345 2.283324500 -1.416829090
C 14.070182200 0.177416921 -2.835918313
C 15.393062649 0.333161197 -0.726815872
C 7.710876867 -1.363379505 1.283978902
C 4.721102032 -2.152223977 0.497828351
C 3.355437541 -2.345293296 0.730105895
H 0.540548019 -3.921410467 3.858996558
H 2.052671686 -3.026374741 3.671780569
H 1.611573638 -4.291271210 2.500843214
H -1.587384775 -3.003373224 2.760735680
H -3.458287549 -1.357191079 3.096578119
H -5.776615707 -0.707208149 2.647885022
H -7.605274175 -1.783072032 0.531122370
H -9.941090410 -1.170463225 0.084916299
H -8.627275722 4.127133447 -0.594081441
H -11.264234292 3.610918498 -0.887145766
H -14.717942028 3.309695669 -2.056345000
H -14.934307082 3.474992642 -0.321181041
H -16.163201166 2.620204777 -1.280705407
H -14.085426042 1.025029082 -3.054398157
H -15.586012363 0.388213591 -2.352832452
H -14.041830249 -0.401632762 -2.029626389
H -14.388963506 -0.160548192 0.515127117
H -14.595684457 1.438043597 1.220895684
H -15.928118171 0.685629970 0.315471634
H -6.377118918 2.315206062 0.028680814
H -4.719263546 0.268739109 -1.415798064
H -2.408537627 -0.386481620 -0.977052943
H 2.564598264 0.776621793 1.831953663
H 4.960190031 1.115791473 1.406835128
H 6.471057845 0.643893228 -1.170993625
H 8.868659936 0.981178056 -1.609264806
H 10.289317776 -2.342429840 2.538496351
H 12.395383282 -1.290301442 1.211696061
H 13.111974057 2.644231769 -1.949198166
H 14.874308742 2.730248248 -1.899670946
H 13.928841314 2.669497960 -0.392933891
H 14.930800686 0.527704321 -3.416815629
H 13.166897510 0.461281025 -3.382995657
H 14.090491846 -0.918946708 -2.811335182
H 16.271833852 0.717011474 -1.255445398
H 15.472710537 -0.760105822 -0.673970747
H 15.423231386 0.697679612 0.307958783
H 7.389125116 -2.011571702 2.095876997
H 5.315110739 -2.980005826 0.115071379
H 2.918652466 -3.319950668 0.519666905
