85
0 1 Before single point calculation
C 13.642197938 -2.540526357 -1.305158713
C 12.941047824 -2.284875580 0.033158454
C 13.943028392 -2.073315924 1.173176165
C 12.064302336 -3.500577023 0.369503410
O 12.012341254 -1.175406901 -0.064620972
C 12.459765123 0.068203447 -0.349258455
O 13.610579810 0.424868380 -0.552389235
N 11.399647410 1.002593418 -0.393566107
C 11.602798377 2.353755985 -0.653642996
C 10.403752065 3.016810878 -0.623553302
C 9.399637783 2.061437425 -0.340101887
C 7.999453605 2.162319754 -0.189273625
C 7.218517829 1.028703721 0.091742091
C 5.760698645 1.140655448 0.255037706
C 5.205016044 2.018396382 1.194573107
C 3.817341950 2.123583863 1.351335603
C 2.932820367 1.357465867 0.574778660
C 1.481404343 1.514094375 0.787800703
N 0.944871737 2.344462621 1.661786190
N -0.431520307 2.300543339 1.669035417
C -0.923145691 1.435434238 0.802676646
C -2.363604730 1.184663803 0.607040549
C -2.872869464 0.226781656 -0.282292741
C -4.254887551 0.027541891 -0.417386566
C -5.174818037 0.777903636 0.328320977
C -6.624020105 0.561588921 0.192612048
C -7.183148543 -0.706684120 0.388036423
C -8.561016536 -0.935853982 0.278427719
C -9.400969084 0.146305064 -0.039263847
C -8.874874353 1.425319662 -0.245881169
C -9.955041306 2.287446332 -0.550377587
C -11.104264286 1.537211839 -0.520360406
N -10.790216716 0.219844436 -0.204730987
C -11.710460093 -0.844898558 -0.073663803
O -11.353754393 -1.977891017 0.205736417
O -12.971767653 -0.397950869 -0.299310819
C -14.097285616 -1.308031884 -0.215675355
C -14.247293580 -1.877055622 1.199320091
C -13.995601126 -2.415614765 -1.269782739
C -15.325240017 -0.440604741 -0.530108692
C -7.483030230 1.628066394 -0.128149350
C -4.667978712 1.737853118 1.213729978
C -3.288376445 1.935886804 1.350828670
S 0.301841640 0.617999299 -0.088215121
C 3.491070187 0.480050566 -0.366739688
C 4.881277941 0.373683910 -0.521947886
C 7.864911030 -0.204633918 0.216474267
C 9.253632804 -0.334352927 0.074337780
C 10.021401425 0.812570432 -0.204248766
H 12.912557595 -2.605062372 -2.120078728
H 14.220933028 -3.470175132 -1.280792083
H 14.332156653 -1.732390901 -1.565743576
H 13.425351435 -1.805391624 2.100935988
H 14.537272776 -2.975597849 1.354039334
H 14.641406899 -1.259079348 0.957495433
H 12.657591898 -4.415615056 0.469248293
H 11.307261835 -3.661563420 -0.406688788
H 11.516965342 -3.338753139 1.305475388
H 12.606233383 2.719208751 -0.835528233
H 10.263734405 4.077474131 -0.788192321
H 7.526193023 3.135012222 -0.303542196
H 5.851072635 2.625412392 1.826475171
H 3.430459690 2.817242259 2.097465044
H -2.215750162 -0.389655192 -0.890286471
H -4.610425462 -0.720940589 -1.123740037
H -6.542172896 -1.547708697 0.649786931
H -8.954378917 -1.935009827 0.445547187
H -9.897429010 3.346376069 -0.767044808
H -12.131659669 1.828547190 -0.695956378
H -14.230654850 -1.074033913 1.944817694
H -15.184783300 -2.433041021 1.307413419
H -13.430339521 -2.559170616 1.454016929
H -13.800254263 -1.991947514 -2.261329027
H -13.175053869 -3.107421554 -1.057236215
H -14.917329219 -3.005415089 -1.318214968
H -15.236255869 0.014985601 -1.523238990
H -15.410005185 0.387760341 0.183027462
H -16.252979653 -1.021368637 -0.497947231
H -7.077631644 2.623164372 -0.296500290
H -5.345975910 2.335005494 1.821168138
H -2.940028212 2.689434408 2.056802603
H 2.866190253 -0.139962842 -1.004357340
H 5.274204798 -0.311557249 -1.271264429
H 7.285227679 -1.098066457 0.445447989
H 9.700120020 -1.316468583 0.187401815
