51
0 1 Before single point calculation
C -4.934657125 -2.704580093 -1.882910214
N -3.641731437 -2.071619500 -1.750876318
C -2.811455292 -1.767409573 -2.797383529
C -1.682839078 -1.173663039 -2.280302832
C -1.832245484 -1.115961166 -0.868241290
C -1.022291413 -0.627976860 0.175506994
C -1.466100068 -0.712598514 1.503252832
C -0.620923820 -0.242009444 2.605675285
C -0.130497774 0.994539001 2.799528598
C -0.353142970 2.187497377 2.040172200
C -1.523227509 2.561355553 1.329566725
C -1.282026109 3.814162575 0.829925720
O -0.050958783 4.239881405 1.194478105
C 0.559680224 3.241154650 1.923579468
C 1.881276243 3.403270230 2.428055458
C 2.920532334 2.624857515 2.083063863
C 2.910556666 1.517460350 1.117561830
C 3.253469430 0.231993797 1.542469667
C 3.248073071 -0.852320821 0.656968786
C 2.900781350 -0.608260823 -0.680447967
C 2.578578430 0.671106912 -1.139977181
C 2.287120573 0.561554352 -2.526943612
C 2.423781217 -0.761018442 -2.881281687
N 2.784186347 -1.460068844 -1.759620356
C 2.994344808 -2.889455709 -1.712379132
C 2.586098914 1.746026257 -0.228973596
C -2.701417372 -1.299730560 1.786559378
C -3.525592397 -1.790986910 0.766481416
C -3.068354604 -1.686856193 -0.556120901
H -5.693028926 -2.029886543 -1.477647130
H -4.917103442 -3.646199468 -1.328312133
H -5.140904702 -2.901190379 -2.938100148
H -3.084642593 -1.991338512 -3.820013382
H -0.836446593 -0.813938888 -2.850582045
H -0.058638673 -0.184147324 -0.056025372
H -0.350704409 -1.020326887 3.316644370
H 0.534232417 1.107874576 3.655247314
H -2.437253693 1.998158398 1.206642747
H -1.860488428 4.506634509 0.235623773
H 2.043131164 4.239299025 3.101382508
H 3.893376201 2.824692847 2.526797765
H 3.512649060 0.054091902 2.583774690
H 3.497140522 -1.848834757 1.005943432
H 1.999297043 1.366939270 -3.189538000
H 2.284734023 -1.254370593 -3.834143685
H 2.824189951 -3.318335747 -2.703234410
H 4.024740410 -3.077288648 -1.400100531
H 2.287745345 -3.319378633 -0.997730677
H 2.325943266 2.743417170 -0.573133712
H -3.043390453 -1.375604581 2.816764344
H -4.485596635 -2.237851866 1.002353198
