61
0 1 Before single point calculation
C 13.253522865 0.466179186 1.215437378
C 12.030745294 1.007113808 0.896055145
N 11.118321162 -0.025346981 0.972257764
C 9.714807723 0.037330780 0.728746270
C 8.915684408 -1.107323232 0.847281890
C 7.536441713 -1.038271432 0.607228977
C 6.918623525 0.166457335 0.242774859
C 5.470404540 0.234131012 -0.009030520
C 4.546287373 -0.222402319 0.941622087
C 3.164994234 -0.155606992 0.706181476
C 2.659568721 0.369649510 -0.492322134
C 1.219844724 0.469760431 -0.797912251
N 0.728188618 1.028766866 -1.887570017
N -0.648196550 0.994488661 -1.934339256
C -1.183466617 0.402932584 -0.883234945
C -2.633603068 0.235845950 -0.671972914
C -3.183676343 -0.513434762 0.378570622
C -4.572750371 -0.635808153 0.530028324
C -5.460451582 -0.017345662 -0.362194412
C -6.917172115 -0.147530717 -0.199242101
C -7.541965247 0.169652891 1.015376335
C -8.928835918 0.047221432 1.176395409
C -9.729181527 -0.400242479 0.117244574
N -11.140459706 -0.528891382 0.274768630
C -12.055384946 -0.952446913 -0.667299989
C -13.285918174 -0.912697975 -0.055602401
N -13.172307494 -0.479631476 1.231989558
C -11.887214171 -0.257535975 1.403241425
C -9.115563141 -0.719685114 -1.100946188
C -7.728140369 -0.592751907 -1.252736999
C -4.911996760 0.727716001 -1.414467016
C -3.524785189 0.851102755 -1.566008020
S -0.004102912 -0.146699064 0.243260219
C 3.587594501 0.825784079 -1.442505698
C 4.966786982 0.759691557 -1.206161047
C 7.728294291 1.305129695 0.126137512
C 9.107786289 1.246446126 0.365765847
C 11.858561441 -1.131939544 1.335573851
N 13.137454478 -0.864516564 1.487628980
H 14.210230141 0.970625243 1.262037681
H 11.763732289 2.017692630 0.630446427
H 9.321482687 -2.076531635 1.120853871
H 6.944491526 -1.948079455 0.695732056
H 4.895582605 -0.625624627 1.890886913
H 2.504642314 -0.519827672 1.489141706
H -2.552965283 -1.026098967 1.100545360
H -4.957619279 -1.236765812 1.352611391
H -6.948764001 0.531986100 1.853795339
H -9.339180199 0.315609186 2.145106214
H -11.784577887 -1.242741019 -1.669980651
H -14.246564847 -1.174607767 -0.480351125
H -11.457462580 0.099327274 2.327871834
H -9.678334739 -1.073947111 -1.959182918
H -7.280557530 -0.859594273 -2.209138324
H -5.562001832 1.234294605 -2.125859892
H -3.143354296 1.443713609 -2.397531186
H 3.242103416 1.240389543 -2.389518908
H 5.646549995 1.115669723 -1.978462169
H 7.285292276 2.262570245 -0.144290861
H 9.669670690 2.169329772 0.259611432
H 11.428861326 -2.112681130 1.479010728
