57
0 1 Before single point calculation
C 7.949817503 0.066436142 0.114803395
N 6.696179807 0.234054713 0.815910353
C 6.505841723 1.070926831 1.883695343
C 5.192492839 0.958011577 2.278843095
C 4.559724017 0.019915002 1.418402755
C 3.250020060 -0.492995102 1.335141860
C 2.935422155 -1.424177484 0.332998033
C 1.584698960 -1.963147422 0.236704603
C 1.235286646 -3.320118216 0.547736056
C -0.110907580 -3.562141585 0.415132363
S -0.959429490 -2.171614380 -0.083131204
C 0.476050263 -1.214799611 -0.145065660
C 0.373606413 0.164331270 -0.563984177
C 1.319662593 0.995180617 -1.136792381
C 0.702956113 2.252458571 -1.353241967
C -0.608292554 2.150824042 -0.920683758
C -1.664152175 3.139953879 -0.922102427
S -1.304481455 4.802948736 -1.203728446
C -2.930999039 5.274641836 -1.015360375
C -3.747540536 4.201508619 -0.751331189
C -3.027158482 2.962756202 -0.704874462
C -3.642502814 1.663560836 -0.462892728
C -3.831442226 0.770684688 -1.521560860
C -4.422764108 -0.480019971 -1.314357957
C -4.824780950 -0.809353270 -0.010255460
C -4.658046445 0.070344833 1.063261131
C -5.168286692 -0.576376359 2.222215396
C -5.623703409 -1.818875329 1.843928300
N -5.407388821 -1.952400125 0.497808733
C -5.731808219 -3.129046856 -0.276822197
C -4.062836641 1.326903367 0.832933509
O -0.790110481 0.879000068 -0.446214572
C 3.918740296 -1.857047512 -0.561015120
C 5.225804111 -1.362407651 -0.493210845
C 5.521853390 -0.421649483 0.505549218
H 8.233044817 -0.988105498 0.158720903
H 8.721499279 0.675868090 0.592512571
H 7.811474818 0.388962700 -0.920216061
H 7.311090634 1.677220290 2.278221603
H 4.732141025 1.493479408 3.099048695
H 2.492973251 -0.160626777 2.040585140
H 1.943360985 -4.073689161 0.871625243
H -0.639427846 -4.487713190 0.596290286
H 2.340052626 0.733973188 -1.378944565
H 1.166732001 3.127740537 -1.785789389
H -3.213683083 6.313864998 -1.108788142
H -4.817638963 4.290062542 -0.604964871
H -3.502077133 1.037400762 -2.523755910
H -4.548533122 -1.171695990 -2.140741638
H -5.191382076 -0.174466237 3.226529020
H -6.073132304 -2.612186444 2.425891969
H -4.810598918 -3.516152933 -0.719852852
H -6.176009817 -3.886353567 0.374539187
H -6.446575143 -2.845699938 -1.053571354
H -3.916835952 2.016508818 1.659253540
H 3.671941556 -2.584614196 -1.332050170
H 5.980058369 -1.702048307 -1.195742916
