86
0 1 Before single point calculation
C -15.572039262 0.360863206 0.095774567
C -14.307026468 1.110416941 0.542086294
C -14.237151878 2.444196085 -0.210179846
C -14.364302658 1.312131133 2.060177409
O -13.210643693 0.237723532 0.170776475
C -11.925964193 0.605031108 0.410930510
O -11.522667022 1.631984595 0.932952613
N -11.045526593 -0.402908549 -0.044618611
C -11.415908652 -1.603697745 -0.641167103
C -10.292304370 -2.329373963 -0.949595380
C -9.170317027 -1.571172233 -0.539075791
C -7.778535987 -1.800572221 -0.597065196
C -6.871092372 -0.845591838 -0.103884016
C -5.420380353 -1.085134348 -0.162784999
C -4.850536411 -2.220492730 0.431037660
C -3.469669712 -2.449471072 0.375651432
C -2.614442538 -1.549695807 -0.276106806
C -1.171848272 -1.813517072 -0.330727651
C -0.496545120 -3.012930778 -0.460312261
N 0.883012641 -2.941869726 -0.460613040
C 1.276333892 -1.690457214 -0.317016406
C 2.693235528 -1.268580254 -0.290121353
C 3.113985197 -0.000203220 0.135821390
C 4.472882162 0.346463791 0.140085853
C 5.456829617 -0.562647136 -0.276459092
C 6.880649170 -0.191760272 -0.266282190
C 7.814513897 -0.931408093 0.468669034
C 9.170571377 -0.580628142 0.511966004
C 9.598046939 0.547485617 -0.210367564
C 8.693189719 1.300720456 -0.964988160
C 9.416979003 2.350165814 -1.578654363
C 10.728859823 2.226923142 -1.193157276
N 10.863801587 1.131999851 -0.346508611
C 12.062956905 0.695923764 0.262348770
O 12.096985303 -0.269042348 1.008489897
O 13.091814800 1.497765130 -0.113665491
C 14.431205794 1.256219046 0.386181630
C 14.491911672 1.427934067 1.907799801
C 14.951908709 -0.115046682 -0.057765338
C 15.296006925 2.344904958 -0.268105663
C 7.332722497 0.927144576 -0.987973276
C 5.040159894 -1.832763899 -0.694040679
C 3.681872309 -2.178926690 -0.698449728
S -0.014296299 -0.554059921 -0.192548823
C -3.182895377 -0.418965561 -0.876535674
C -4.563719937 -0.188354271 -0.817035183
C -7.382113837 0.336417723 0.444391604
C -8.758334611 0.588287282 0.515370553
C -9.647169798 -0.380136559 0.018159198
H -16.481809877 0.927520108 0.319228532
H -15.547220959 0.157595615 -0.980993223
H -15.643311768 -0.615221636 0.589947622
H -14.099549533 2.276425003 -1.284418715
H -13.394079505 3.056505376 0.123317433
H -15.149200541 3.033037803 -0.063723698
H -13.511080509 1.890825470 2.429359759
H -14.337049862 0.348566784 2.582798672
H -15.275684157 1.841325123 2.358806397
H -12.460447427 -1.838041662 -0.795090493
H -10.278035537 -3.303300583 -1.422095624
H -7.412574773 -2.723863003 -1.040258541
H -5.480587119 -2.935018930 0.958202907
H -3.073062350 -3.336303001 0.864400113
H -0.966538989 -3.983133492 -0.566263233
H 2.403174072 0.743509863 0.485952344
H 4.760374380 1.336284164 0.491262153
H 7.489247675 -1.798806028 1.041463297
H 9.862788962 -1.177471981 1.100107060
H 9.018171312 3.114901160 -2.232862265
H 11.588806099 2.832175734 -1.447940537
H 15.524931016 1.406167081 2.270978683
H 14.037897917 2.378972215 2.209465850
H 13.943638024 0.637660769 2.429764246
H 16.015180563 -0.232464095 0.177250067
H 14.418510499 -0.933896774 0.433951583
H 14.815396435 -0.253870784 -1.136781278
H 16.344436649 2.270597915 0.039393021
H 14.929061618 3.344274654 -0.006712042
H 15.249508311 2.274343270 -1.361409554
H 6.632145174 1.514825379 -1.577155388
H 5.771162827 -2.566495795 -1.029253866
H 3.397771929 -3.176076122 -1.029940523
H -2.563357298 0.295724686 -1.413370006
H -4.968371623 0.696318600 -1.306075180
H -6.702373028 1.087480147 0.844048643
H -9.112873289 1.517633197 0.952126894
