95
0 1 Before single point calculation
C -12.170593388 3.049282643 -1.375488004
C -12.719808736 1.939475335 -2.015223568
C -12.424775848 0.653322661 -1.557746817
C -11.566559557 0.463660478 -0.465733569
C -11.281064794 -0.900302575 -0.002557471
N -12.236278268 -1.775045372 0.259373815
C -11.617828242 -2.867157944 0.793161482
C -12.194228761 -4.060844990 1.255565760
C -11.362805014 -5.077684090 1.733376255
C -9.979701145 -4.915129202 1.735302300
C -9.388666416 -3.731422618 1.276242927
C -10.236910572 -2.699635913 0.833439623
N -10.020371913 -1.434400815 0.289741090
C -8.749352624 -0.836305098 0.047104134
C -7.720846983 -0.960025244 0.985936647
C -6.474474412 -0.370481510 0.743557869
C -6.224261628 0.349601090 -0.435968152
C -4.908368235 0.962306698 -0.691213495
C -3.723981366 0.224299520 -0.549051333
C -2.473469803 0.804857672 -0.797561132
C -2.364742997 2.142062593 -1.199995961
C -1.064219990 2.747452957 -1.473943662
C -0.649295327 3.921092025 -2.070787942
C 0.767681125 3.919713034 -2.033084212
C 1.147525800 2.750580352 -1.405114859
C 2.429962578 2.147445073 -1.053413521
C 3.622767474 2.628138580 -1.607266089
C 4.856459638 2.055227046 -1.268811516
C 4.938602074 0.986887620 -0.362775215
C 6.236445196 0.388736296 -0.002386012
C 7.322957778 1.190175224 0.384090686
C 8.556315098 0.626469937 0.731278289
C 8.725726334 -0.761654948 0.702360485
N 9.977300969 -1.342116425 1.061490900
C 11.256271724 -0.869060862 0.745756432
C 11.579161994 0.234422597 -0.167671727
C 11.031489904 0.311128853 -1.456230758
C 11.366514285 1.367345019 -2.307174102
C 12.262396582 2.347667986 -1.883720072
C 12.832107293 2.269026900 -0.614399666
C 12.496974915 1.213747136 0.236464967
N 12.187858909 -1.598858660 1.334079545
C 11.532124401 -2.601905959 1.984995911
C 12.071987340 -3.652857231 2.742986945
C 11.206826890 -4.558706113 3.362748085
C 9.827076000 -4.412492203 3.241364842
C 9.272319455 -3.368347822 2.491153942
C 10.153033610 -2.484093458 1.841255606
C 7.655971582 -1.575699184 0.318191955
C 6.428104992 -1.002306580 -0.032322129
C 3.740680908 0.509507855 0.189550842
C 2.507100779 1.079346245 -0.150743541
O 0.031220689 2.038906380 -1.066805629
C -3.544073903 2.883466372 -1.342227324
C -4.794853441 2.302807508 -1.090351425
C -7.269726964 0.463974346 -1.366411266
C -8.519999569 -0.119284729 -1.131602051
C -11.040784782 1.588773985 0.185468437
C -11.335422015 2.875129596 -0.273091920
H -12.405708681 4.050609168 -1.727353231
H -13.385514370 2.073057410 -2.864132996
H -12.871771764 -0.207644751 -2.052002503
H -13.271389943 -4.184823965 1.229380200
H -11.801510330 -6.006347259 2.090208120
H -9.345604556 -5.726218575 2.088624993
H -8.307851980 -3.643083428 1.250546763
H -7.874823615 -1.466312026 1.935757989
H -5.697545658 -0.461732729 1.501031181
H -3.761558299 -0.823092839 -0.256278198
H -1.581672498 0.191917348 -0.682826001
H -1.286918057 4.685025713 -2.491874348
H 1.428006612 4.685679756 -2.413376838
H 3.611981822 3.449297235 -2.319760895
H 5.758741563 2.448302526 -1.733765476
H 7.212001119 2.272099034 0.438040707
H 9.352051117 1.293060307 1.056619202
H 10.347006780 -0.454904327 -1.813288460
H 10.934483637 1.419071307 -3.303318246
H 12.527008402 3.166390888 -2.548019589
H 13.544854557 3.022129518 -0.288288197
H 12.959287344 1.150486908 1.220016057
H 13.147498275 -3.746610947 2.845882373
H 11.617036931 -5.373625371 3.954144909
H 9.167503028 -5.114113673 3.748806987
H 8.194827214 -3.251897405 2.442787572
H 7.763930544 -2.654359593 0.233418065
H 5.618668894 -1.657306299 -0.351050891
H 3.754632308 -0.307822555 0.907660936
H 1.603866429 0.682961818 0.309256365
H -3.510231473 3.927625136 -1.643233527
H -5.686465788 2.917495779 -1.199686602
H -7.112028445 0.997331931 -2.302542308
H -9.281066269 -0.028934612 -1.903287864
H -10.404376838 1.475227019 1.060222304
H -10.920844623 3.740843157 0.237046259
