85
0 1 Before single point calculation
C -11.779888561 -2.705155157 -0.878544169
C -12.300269500 -1.266669097 -0.778705230
C -13.581821101 -1.263938114 0.068319291
C -12.622611707 -0.679361365 -2.157190362
O -11.373472574 -0.423484090 -0.049009913
C -10.121334736 -0.209392903 -0.527015393
O -9.625662083 -0.640091541 -1.556074113
N -9.399816434 0.618778120 0.362362401
C -9.874011651 1.138611185 1.561773395
C -8.887023603 1.881004860 2.161053555
C -7.752093175 1.842356023 1.316157079
C -6.462937317 2.409729136 1.406317849
C -5.509697074 2.200846715 0.393799734
C -4.165678575 2.795630079 0.493380286
C -4.002449962 4.174274496 0.693054568
C -2.731439757 4.736737493 0.794750287
C -1.601166357 3.925842415 0.695332804
C -1.716559379 2.541817789 0.487893340
C -0.486243030 1.735700731 0.388358587
N 0.712587160 2.164044439 0.733416293
N 1.699172235 1.226714193 0.517115772
C 1.237202976 0.103526359 0.000333011
C 2.076674202 -1.060650384 -0.344071532
C 1.578084851 -2.220418797 -0.955916343
C 2.425095106 -3.286538716 -1.267228011
C 3.786231007 -3.211280888 -0.973063773
C 4.328392180 -2.073025238 -0.360622482
C 5.766811625 -1.989127964 -0.049049971
C 6.529337305 -0.886701095 -0.448778037
C 7.898127425 -0.782625323 -0.162191784
C 8.527110267 -1.821126755 0.549715911
C 7.790284031 -2.940107444 0.961545036
C 8.670287116 -3.809432119 1.648102387
C 9.908348902 -3.221869217 1.647570724
N 9.850156245 -2.001245042 0.983132047
C 10.978807154 -1.163531052 0.829649732
O 12.062712649 -1.492547548 1.286987953
O 10.671482701 -0.036895544 0.149220028
C 11.688025816 0.964632121 -0.110943939
C 12.232526606 1.556384480 1.193768423
C 10.958170486 2.071627196 -0.886294905
C 12.806760103 0.402775129 -0.994654947
C 6.412878309 -3.016568387 0.659852366
C 3.455337291 -1.011724280 -0.054656419
S -0.467381577 0.133607719 -0.237471658
C -3.009932829 1.995228705 0.394584611
C -5.872483455 1.416976830 -0.707521355
C -7.144461099 0.840422199 -0.822434443
C -8.079811049 1.061153281 0.204119698
H -11.466735253 -3.074895285 0.104571492
H -12.545170204 -3.379592969 -1.278634776
H -10.907094582 -2.776661069 -1.533033358
H -14.365054606 -1.886982464 -0.377238470
H -13.381267128 -1.629214375 1.082900711
H -13.972607683 -0.244847383 0.178388413
H -11.759126737 -0.713201460 -2.828178805
H -12.911804638 0.374221502 -2.073216253
H -13.437031349 -1.228010671 -2.642786667
H -10.883571244 0.926725643 1.889005783
H -8.972746621 2.398531680 3.107910572
H -6.209243875 3.006223811 2.279537006
H -4.872732487 4.824592206 0.762283568
H -2.619583790 5.806781416 0.949895465
H -0.617087878 4.386534876 0.778640759
H 0.525676334 -2.322101269 -1.207898726
H 2.024208583 -4.176818500 -1.746392137
H 4.429228837 -4.048684132 -1.238520651
H 6.060789768 -0.077884802 -1.008734974
H 8.435644187 0.097793635 -0.497659794
H 8.422436659 -4.762727118 2.097274786
H 10.848185304 -3.557893082 2.067589768
H 12.824837122 0.827582255 1.755921935
H 12.875165116 2.422902599 1.001254800
H 11.413212744 1.868651726 1.851973633
H 10.124703864 2.474731460 -0.298885326
H 10.521292049 1.676176142 -1.810967769
H 11.628864206 2.897476818 -1.145827231
H 13.406016797 -0.345724050 -0.467644348
H 13.487812530 1.194375153 -1.326018441
H 12.390754516 -0.092690257 -1.879384262
H 5.849153907 -3.882563045 0.999016621
H 3.860144161 -0.123615098 0.432884978
H -3.143340670 0.923355253 0.261573403
H -5.160077848 1.251015469 -1.514311633
H -7.386205137 0.241523753 -1.696196112
