84
0 1 Before single point calculation
C -14.144034542 -1.439061249 -0.933291115
C -13.915882584 0.022658051 -1.332909611
C -15.132200473 0.849075462 -0.888054916
C -13.740503207 0.181496031 -2.846894222
O -12.796740530 0.594996584 -0.609783453
C -11.546672818 0.091588161 -0.766640826
O -11.191290343 -0.829001367 -1.484605798
N -10.637836838 0.792461200 0.057943583
C -10.952408247 1.846597839 0.908692404
C -9.819010480 2.262515994 1.561559292
C -8.748323112 1.453029935 1.113832246
C -7.373526496 1.412385283 1.429848631
C -6.519371225 0.483545482 0.809045363
C -5.092728085 0.435427122 1.149837281
C -4.656818096 0.221290421 2.460470196
C -3.291392814 0.165650584 2.750814768
C -2.371645521 0.327844418 1.718879314
C -0.924026896 0.269012952 1.953974294
C -0.212519399 0.333836026 3.138605168
N 1.159776613 0.209581789 3.044299603
C 1.514166795 0.064378998 1.778388005
C 2.907020495 -0.116502239 1.321743822
C 3.935798653 -0.262642090 2.247550474
C 5.241558167 -0.451930728 1.791625939
C 5.513561277 -0.489592130 0.420423184
C 6.874433239 -0.700756919 -0.095573585
C 7.950538667 0.062520184 0.369532965
C 9.258580517 -0.127693072 -0.099593499
C 9.498559750 -1.119747776 -1.069027659
C 8.440171516 -1.897733420 -1.557694206
C 8.969429978 -2.798586141 -2.511409589
C 10.317247829 -2.564040107 -2.592607549
N 10.670545037 -1.543243820 -1.716567454
C 12.002015855 -1.089095824 -1.575711422
O 12.899057867 -1.581585948 -2.243351680
O 12.095640881 -0.105174115 -0.652959493
C 13.379289860 0.501960877 -0.356956107
C 13.950940494 1.216457932 -1.586559273
C 13.077283542 1.550158709 0.724923703
C 14.361589591 -0.525327170 0.216740682
C 7.133238409 -1.683212529 -1.066922206
C 4.416779313 -0.323193289 -0.424738681
N 3.136291794 -0.142428924 -0.014195538
S 0.199752079 0.074526745 0.664336168
N -2.763907737 0.544272429 0.442572705
C -4.096034616 0.591416254 0.190256613
C -7.064479124 -0.397943204 -0.131292200
C -8.426295310 -0.382586854 -0.459075869
C -9.262681406 0.552519880 0.175944773
H -14.180801239 -1.541934725 0.156994562
H -13.335376129 -2.088007034 -1.282131205
H -15.079783175 -1.825647902 -1.352133980
H -16.055463751 0.504326767 -1.366222775
H -15.263475357 0.794399988 0.199047270
H -14.992658204 1.909218029 -1.129934519
H -13.499966827 1.219943007 -3.103879326
H -14.649187789 -0.109781882 -3.385550008
H -12.920363718 -0.434212525 -3.229444709
H -11.969346009 2.210546837 0.976602847
H -9.765724154 3.064747527 2.286002492
H -6.977308733 2.118911695 2.155527499
H -5.377892294 0.077518093 3.261985108
H -2.974767679 -0.019344029 3.770893298
H -0.645638919 0.468143113 4.122020204
H 3.726508717 -0.242033368 3.312936613
H 6.039200802 -0.587244838 2.517846310
H 7.782140289 0.841478774 1.112823551
H 10.051688253 0.496978562 0.297954885
H 8.422114684 -3.539755251 -3.079371139
H 11.079832555 -3.037424583 -3.199094041
H 14.836845610 1.807029633 -1.329131706
H 13.203768168 1.884289962 -2.030082731
H 14.244207063 0.510717279 -2.369665477
H 13.978961386 2.088236403 1.034774056
H 12.344932151 2.282007078 0.364815977
H 12.634484402 1.078975192 1.610140522
H 14.669086639 -1.260731740 -0.533021479
H 13.900963745 -1.087224535 1.037184956
H 15.269717025 -0.041434528 0.592582151
H 6.326519416 -2.307623000 -1.444789802
H 4.539043949 -0.322427652 -1.505440545
H -4.345854015 0.772963240 -0.852653205
H -6.429001273 -1.135811695 -0.620054601
H -8.810342122 -1.089919434 -1.189410156
