54
Properties=species:S:1:pos:R:3 Co(acac)(Me2P-propylene-PiPr2)+;=T plausible=T initial=T 3D=T XYZ=T geometry,=T cationic=T Co(II)=T precursor-like=T complex=T pbc="F F F" explicit_bonds=b0_3_1,b0_4_1,b3_5_1,b4_7_1,b5_6_1,b5_8_1,b6_7_2,b6_10_1,b7_9_1,b8_11_1,b8_12_1,b8_13_1,b9_14_1,b9_15_1,b9_16_1,b17_18_1,b17_20_1,b17_21_1,b18_22_1,b18_23_1,b19_24_1,b25_34_1,b26_27_1,b26_28_1,b26_29_1,b30_31_1,b30_32_1,b30_33_1,b34_35_1,b34_37_1,b35_38_1,b35_39_1,b35_40_1,b36_41_1,b36_42_1,b36_43_1,b44_45_1,b44_46_1,b44_47_1,b45_48_1,b45_49_1,b45_50_1,b46_51_1,b46_52_1,b46_53_1
Co       0.00000000       0.00000000       0.00000000
P        2.15943209       0.00000000       0.04952826
P        0.00000000       2.18000000      -0.05000000
O       -1.88000000       0.00000000       0.05000000
O        0.00000000      -1.88000000      -0.05000000
C       -2.75000000      -0.85000000       0.05000000
C       -2.00000000      -2.00000000       0.00000000
C       -0.85000000      -2.75000000      -0.05000000
C       -4.20000000      -0.65000000       0.10000000
C       -0.65000000      -4.20000000      -0.10000000
H       -2.25000000      -2.25000000       1.05000000
H       -4.65000000      -1.20000000       0.90000000
H       -4.50000000       0.40000000       0.25000000
H       -4.70000000      -1.00000000      -0.82500000
H       -1.20000000      -4.65000000      -0.90000000
H        0.40000000      -4.50000000      -0.25000000
H       -1.00000000      -4.70000000       0.82500000
C        2.05000000       1.71000000       0.62000000
C        1.19000000       2.54000000       1.52000000
C        0.54000000       3.54000000       0.58000000
H        3.02000000       2.13000000       0.93000000
H        1.60000000       1.63000000      -0.38000000
H        1.83000000       3.08000000       2.23000000
H        0.39000000       1.94000000       1.98000000
H        1.29000000       4.30000000       0.31000000
H       -0.35000000       4.03000000       0.99000000
C        3.62000000      -0.85000000       0.85000000
H        3.85000000      -0.43000000       1.84000000
H        3.30000000      -1.90000000       1.02000000
H        4.48000000      -0.88000000       0.16000000
C        2.90000000      -1.10000000      -1.30000000
H        3.02000000      -2.19000000      -1.17000000
H        2.14000000      -0.89000000      -2.07000000
H        3.84000000      -0.65000000      -1.65000000
C       -0.85000000       3.60000000       0.90000000
C       -2.05000000       4.25000000       0.25000000
C       -0.20000000       4.45000000       2.00000000
H       -1.20000000       3.00000000       1.76000000
H       -2.56000000       4.90000000       0.97000000
H       -2.76000000       3.50000000      -0.13000000
H       -1.75000000       4.87000000      -0.61000000
H        0.68000000       4.00000000       2.47000000
H       -0.90000000       4.61000000       2.83000000
H        0.14000000       5.43000000       1.62000000
C       -1.15000000       2.90000000      -1.30000000
C       -2.54000000       3.40000000      -1.75000000
C       -0.52000000       3.25000000      -2.63000000
H       -1.16000000       1.80000000      -1.24000000
H       -2.54000000       4.50000000      -1.86000000
H       -3.27000000       3.10000000      -0.98000000
H       -2.85000000       2.97000000      -2.71000000
H        0.51000000       2.87000000      -2.64000000
H       -1.10000000       2.88000000      -3.49000000
H       -0.50000000       4.35000000      -2.74000000
