##TITLE=1D-19F-32-1.64-10-90--60.0-"High"
##JCAMP-DX=5.01 $$ Magritek Spinsolve SPA3315 2.8.2.9926
##DATA TYPE=NMR FID
##DATA CLASS=NTUPLES
##ORIGIN=SPA3315 at Magritek
##OWNER=Copyright (C) 2026 by Magritek
##LONGDATE=2026/07/24 18:59:58.554
##.OBSERVE FREQUENCY=58.1384524703026
##.OBSERVE NUCLEUS=^19F
##.DELAY=( 20,  10000)
##.ACQUISITION MODE=SIMULTANEOUS
##.FIELD= 1.5
##.AVERAGES= 32
##.DIGITISER RES=16
##.SHIFT REFERENCE=(INTERNAL, None, 16384, 0)
##$REFERENCE_POINT= 5988.307    $$ Referencing label
$$      Distance of the zero axis position (in Hz) from the last data
$$      point (right edge); positive values -> right edge is below 0 Hz
##SPECTROMETER/DATA SYSTEM=Magritek
##SAMPLE DESCRIPTION=solvent=None
$$ Bruker specific parameters
$$ --------------------------
##$AUNMP=   <proc_1d_nosref>
##$INSTRUM= <Magritek>
##$SI=      8192
##$TD=      8192
##$TDeff=   8192
##$SW=      86.001600
##$BF1=     58.1384524703026
##$SF=      58.1419407774508
##$LB=      1.00
##$GB=      0
##$PHC0=    14.1
##$PHC1=    0.0
##$REVERSE= yes
$$ End of Bruker specific parameters
$$ ---------------------------------
##NTUPLES=NMR FID
##VAR_NAME=        TIME,            FID/REAL,            FID/IMAG, PAGE NUMBER
##SYMBOL=             X,                   R,                   I,           N
##VAR_TYPE= INDEPENDENT,           DEPENDENT,           DEPENDENT,        PAGE
##VAR_FORM=        AFFN,                AFFN,                AFFN,        AFFN
##VAR_DIM=         8192,                8192,                8192,           2
##UNITS=        SECONDS,     ARBITRARY UNITS,     ARBITRARY UNITS,            
##FIRST=              0,    9.30526465569927,1.77635683940025e-15,           1
##LAST=    1.638199e+00,9.87657941070615e-06,-1.7495637823557e-03,           2
##MIN=                0,   -9.37740263811999,   -11.2293170627387,           1
##MAX=     1.638199e+00,    10.9185149063245,    11.0102514625273,           2
##FACTOR=             1,                   1,                   1,           1
##PAGE=N=1
##DATA TABLE=(X++(R..R)), XYDATA
0.000000     9.305265     4.473930    -7.502279    -8.729310     1.411586     8.472018
0.001200     4.993754    -6.809138    -7.605859     0.041585     9.851382     7.450358
0.002400    -3.634330    -9.377403    -1.272576     4.281192     7.496560    -1.129487
0.003600    -7.707643    -3.912923     6.033196    10.918515     0.619146    -6.809134
0.004800    -8.743126     0.811132     8.359597     3.224871    -5.941365    -8.218220
0.006000     1.966900     7.938122     5.238371    -3.340803    -8.794806    -0.140421
0.007200     7.867069     5.664415    -2.764002    -8.031599    -2.424990     5.661880
0.008400     7.779968    -0.145232    -8.631932    -4.496718     4.949730     6.483933
0.009600     1.315524    -5.039801    -6.856592     3.466779     7.162984     3.665027
0.010800    -5.573703    -7.825142    -0.158464     6.676520     4.852980    -4.020988
0.012000    -7.348160    -1.462321     6.943954     5.687173    -2.086316    -7.263946
0.013200    -5.122839     5.085210     8.575311     0.219216    -7.418828    -6.836904
0.014400     3.737627     7.432576     1.561242    -4.701000    -5.888442     2.573550
0.015600     7.547203     3.138420    -4.878008    -7.444740    -0.131389     6.472104
0.016800     4.552503    -1.760333    -8.166922    -2.129761     6.472705     5.951168
0.018000    -0.214982    -7.413468    -3.928581     2.834231     4.644977     1.269237
0.019200    -6.774981    -4.563997     4.449372     5.385684     2.690998    -5.885943
0.020400    -4.143159    -0.045702     5.899587     3.736076    -2.750749    -4.763862
0.021600    -2.692928     6.039805     6.968826    -1.808265    -4.849174    -2.257292
0.022800     4.829275     6.574166    -0.820426    -4.430691    -3.249974     2.949737
0.024000     5.532332     1.922591    -6.523796    -5.122411     1.589147     5.293685
0.025200     1.462549    -4.614678    -5.531896     1.059382     4.826134     4.358421
0.026400    -3.189386    -5.565122    -1.847486     6.593526     5.403940    -1.484755
0.027600    -4.044140    -2.020245     2.884055     5.723247    -0.545058    -5.088648
0.028800    -2.387928     3.365170     6.416775     2.490549    -5.047617    -5.135365
0.030000     1.328654     4.722691     1.604958    -3.557723    -6.489353    -0.630342
0.031200     5.214022     4.457551    -1.816664    -5.535651    -1.839325     2.856212
0.032400     5.194897    -0.551921    -5.160022    -3.431748     4.856359     6.086205
0.033600     1.142695    -3.074213    -5.445228     1.760420     6.559305     3.947260
0.034800    -3.702258    -6.609957     0.091448     4.500610     4.328424    -0.488218
0.036000    -5.220671    -1.794359     3.617976     3.742401    -0.204176    -4.486953
0.037200    -1.158648     3.351138     4.224785    -0.403216    -5.421575    -4.499461
0.038400     1.239386     2.021459     2.606757    -3.821798    -3.630720     0.442549
0.039600     4.173581     3.915939    -3.284186    -4.498841    -1.048343     3.963796
0.040800     3.903734    -2.469979    -3.878330    -0.177997     2.457169     3.973453
0.042000     0.134800    -5.016538    -2.335469     2.509715     4.395816     1.521644
0.043200    -4.200752    -3.150790     1.530624     5.705144     2.914467    -3.601670
0.044400    -3.675100     0.686376     3.668482     1.986281    -2.262733    -4.913048
0.045600    -1.747324     4.219308     3.406011    -2.671830    -5.026303    -2.592106
0.046800     2.602164     3.852834     0.591637    -4.939727    -2.468597     1.757599
0.048000     2.710723     0.842757    -4.334932    -3.393417    -0.286774     4.302781
0.049200     2.791327    -2.797911    -3.881637     0.287754     4.070524     3.246018
0.050400    -1.254294    -3.798494    -0.410852     3.265850     2.597806     0.413139
0.051600    -2.902886    -2.129348     2.145790     4.428443    -0.969972    -4.275071
0.052800    -2.843870     2.087326     4.500836     0.348335    -3.679287    -4.179220
0.054000     0.380526     4.014219     1.317984    -3.149511    -3.041851    -0.548298
0.055200     3.927983     2.498467    -1.638480    -2.982880    -1.253011     1.554443
0.056400     2.992435     0.144068    -3.520868    -2.319203     0.571357     3.954311
0.057600     0.667558    -3.308116    -3.030184     1.261406     3.733494     2.862475
0.058800    -2.079744    -2.729449     0.452470     5.108479     3.033656    -2.510941
0.060000    -3.671156    -1.887214     1.842135     2.345014    -0.770774    -2.831204
0.061200    -2.182223     2.375117     3.035238    -0.049370    -2.690573    -2.956178
0.062400     0.311779     2.830567     0.237560    -2.657276    -3.374731    -0.443718
0.063600     3.602672     2.840960    -0.323787    -2.707533    -1.210104     2.615062
0.064800     3.047628    -1.303378    -3.916013    -1.637469     2.468613     3.034720
0.066000    -1.303203    -3.520586    -1.833834     0.717430     2.946572     0.150930
0.067200    -2.663417    -1.179073     0.122219     2.664391     1.472895    -3.692684
0.068400    -4.148613    -0.641095     1.522004     1.552225    -1.593920    -1.751638
0.069600    -2.283508     1.384010     1.931483     0.750552    -3.895823    -0.884878
0.070800     1.810138     3.446543    -0.247635    -2.419425    -2.322127     2.546748
0.072000     2.895160     0.646394    -2.728402    -2.787523     0.324824     3.344731
0.073200     2.903983    -1.072636    -3.368448    -0.956914     2.323987     2.350281
0.074400    -1.393741    -2.730112    -1.497251     2.135879     2.398876     0.027878
0.075600    -2.878763    -0.589082     1.544259     0.798838     0.412840    -2.838845
0.076800    -0.222063     1.532902     1.733249     1.759545    -1.320421    -1.778147
0.078000    -0.126096     3.128665     1.200926    -1.019327    -2.454697    -0.561982
0.079200     2.812008     1.554286     0.238505    -3.250782    -1.302535     2.123885
0.080400     2.690922     0.230776    -1.933891    -1.205888     1.301548     4.254730
0.081600     0.901795    -1.115155    -1.570553    -1.120957     2.393906     1.831389
0.082800    -1.855939    -3.016677    -1.544854     3.345243     2.192078    -0.903836
0.084000    -2.866684    -0.353261     1.656822     2.659252     0.370908    -3.609173
0.085200    -1.686490     0.588675     2.808218     0.566220    -1.513592    -2.434454
0.086400     1.846721     1.768125     1.944465    -0.931929    -2.212731     0.061139
0.087600     2.111989     3.196440     0.011077    -2.645562    -1.046178     0.278151
0.088800     0.619815    -1.428035    -1.259138    -1.666584     0.933027     1.710326
0.090000    -0.399818    -2.068370    -2.198818     1.508504     2.412514     0.272104
0.091200    -1.952799    -1.355735     0.405384     3.067116     0.935251    -1.545237
0.092400    -3.096731    -1.325011     0.607741     0.683359    -1.700489    -1.938310
0.093600    -0.129740     1.387380     1.249448    -0.487694    -1.751406    -1.696698
0.094800     1.108370     2.662490    -0.127284    -2.681213    -0.612944     0.467504
0.096000     1.382790     1.706964    -2.465855    -2.972886     0.268403     2.075524
0.097200     1.536723    -2.666621    -1.581365    -0.310836     0.938929     2.538982
0.098400    -1.223182    -2.011425    -0.677252     0.883687     1.703324     0.173048
0.099600    -1.865980    -1.798775     0.121577     1.815035     0.375049    -1.940142
0.100800    -0.862028     0.902231     2.439715     1.593006    -0.792646    -1.742751
0.102000     0.227859     2.413429     0.666734    -1.442911    -1.698694    -1.389905
0.103200     2.597726     0.726703    -1.039380    -1.579649    -1.741575     1.243753
0.104400     1.676791     0.412517    -0.976279    -0.652039     0.966852     0.877658
0.105600    -0.728414    -1.712157    -0.352801     1.373106     1.064717     0.004803
0.106800    -0.437957    -1.542842     0.560137     1.309312     0.914839    -1.131282
0.108000    -3.489201     0.065035     1.118925     0.674332     0.025154    -2.430358
0.109200    -1.256180     1.034015     1.105011    -1.373175    -1.054930    -2.222705
0.110400    -0.100308     0.929273     1.045881    -0.869394    -1.257333    -1.046374
0.111600     1.161391     1.387265    -1.019982    -0.254072    -1.215176     0.776455
0.112800    -0.479663     0.078043    -1.913556    -1.186075     1.274810     1.397516
0.114000     0.421347    -0.492228    -0.137228     1.661282     2.324231     1.902907
0.115200    -1.023980    -2.122949     0.136966     1.282844    -0.434728    -1.166929
0.116400    -1.240844    -0.381598     2.265055     1.510238     0.323661    -1.564533
0.117600    -1.030060     0.470604     2.220852     0.815080    -2.296713    -1.007133
0.118800     0.274515     0.926659    -0.340716    -1.161715    -0.130681    -0.403923
0.120000     1.591591     0.641171    -1.219447    -2.112103     0.455373     0.805394
0.121200     1.164202    -0.261495    -1.498123     0.084415    -0.190611    -1.178928
0.122400    -0.715680    -1.157110    -0.329101     0.365006     0.687555     1.235774
0.123600    -1.899027    -0.588218     0.740671     1.129718     0.187303    -0.757868
0.124800    -2.468052    -0.176473     2.230707     1.366588    -0.088125    -0.252659
0.126000     0.279553     0.709284     0.601638    -1.056334    -0.654036    -1.100378
0.127200     0.790257     0.842969     0.219847    -2.113512    -0.993679     0.579854
0.128400     1.049262     0.247327    -1.421911    -1.214755     0.648254     1.696879
0.129600     0.469597    -0.404176    -0.516047    -0.440685     1.159827     1.671325
0.130800    -0.736027    -0.511315     0.816474     1.173390     1.201305    -0.182253
0.132000    -2.225944    -0.207913     0.230786     0.242250     0.372612    -1.239795
0.133200    -0.128374     0.143653     0.715662     0.319161    -0.312183     0.076794
0.134400    -0.128946     1.586196     0.604639    -1.007364    -1.922349    -0.952599
0.135600     0.763736     0.324471    -1.486877    -0.704811    -0.056948     0.280681
0.136800     0.032596    -0.299182    -0.406331     0.169269     1.038885     0.114077
0.138000    -0.608220    -0.380054     0.471011     0.373618     2.068028     0.033608
0.139200     0.058437    -1.488330     0.146494     1.030897     0.192183    -1.039566
0.140400    -0.707861    -0.060306     1.721532    -0.101751    -0.802448    -1.184297
0.141600    -0.461576     1.715361     0.810804    -0.245983    -0.642191    -0.033796
0.142800     0.358959     0.501143     0.400489    -1.412388    -0.992122     0.194400
0.144000     0.790779     0.238283    -1.631413    -0.825480    -0.088256    -0.486149
0.145200     0.496230    -0.869999    -0.605464    -0.621147     0.592052     1.283983
0.146400    -0.882168    -2.241338    -0.324679     0.616654     1.017035     0.209848
0.147600    -0.597831    -0.408046     0.079304     1.805112    -0.609188    -0.869835
0.148800    -1.034412     0.830669     0.927251     0.181647    -0.707558    -0.904024
0.150000    -0.860847    -0.291399     0.475611    -0.000805    -0.130167    -0.346346
0.151200     1.310975     0.531955     0.307641    -0.849395    -1.465728    -0.174301
0.152400     1.033067     0.216667    -0.446964    -1.880916    -0.053636    -0.415387
0.153600     0.173536    -0.260870    -1.130385     0.031649     1.178017     0.703748
0.154800    -0.551249    -0.588452     0.537784     0.896483     0.819147     0.759991
0.156000    -1.552150    -0.319441     0.507258     1.368096     0.251085    -1.576519
0.157200    -1.671328     0.317497     0.357891     0.168213    -1.189605    -0.351870
0.158400    -0.678970    -0.040520    -0.141565    -1.178832    -1.657103    -0.486587
0.159600     2.015988    -0.036365    -1.481529    -0.189547    -0.911630     0.852497
0.160800     0.774140     0.286085    -0.971517    -0.641720    -0.433344     1.063326
0.162000    -0.317092    -0.578175     0.583089     0.698031     1.506682     1.305515
0.163200    -1.005188    -1.473453     0.162948     0.840510     0.564715     0.115977
0.164400    -0.671423     0.291863     1.269426     1.686718     0.596444    -1.447040
0.165600     0.326889    -0.752753     1.051118     0.114003    -0.109005    -0.403654
0.166800    -0.185717     1.066987    -0.282207    -1.289599    -0.938068     0.046199
0.168000    -0.277330    -0.110750    -0.528910    -0.202151     0.009525     0.044268
0.169200     0.700627    -0.306628    -0.466126     0.235398     0.846796     0.369365
0.170400    -0.308069    -0.749209    -0.538048     1.713698     0.454920     0.852484
0.171600    -0.909265    -0.434652    -0.708119     0.855284     0.100234     0.319853
0.172800    -0.935190     0.496297     0.614007     0.038620    -1.188691    -2.044905
0.174000    -0.794793    -0.231192     0.860906    -0.193985    -1.171915    -0.324548
0.175200    -0.229839     1.067211     0.589996    -0.536901    -0.188486     0.828277
0.176400     0.502865     0.059021     0.007973    -0.004184     0.122899     0.211816
0.177600     0.826875    -0.231961    -0.283488     0.167293     0.319096     0.849216
0.178800     0.328223    -0.102104    -0.590935     0.263059     0.799578     0.769188
0.180000    -0.812432     0.044606     0.352104     0.302211    -0.395955    -0.699705
0.181200    -1.174223    -0.948030     1.354668     1.309935    -0.904814    -0.786699
0.182400     0.658469     0.184096    -0.472576    -0.580308    -0.752524     0.147397
0.183600    -0.032009     1.021000     0.030349    -0.057401     0.745930     0.612847
0.184800     1.424593    -0.397189    -1.227505    -0.328576    -0.206550     0.364580
0.186000     0.016107    -0.257563    -1.088903     0.221625    -0.614070    -0.421324
0.187200    -0.887986     0.051111    -0.128441     1.618055    -0.136146     0.172814
0.188400    -0.344129     0.089383     0.462646     0.856810     0.102854    -0.445399
0.189600    -0.479960    -0.078979     1.177050     0.169370     0.489800     0.711267
0.190800     0.346712     0.894298     0.730991     0.022092    -1.171863    -0.077722
0.192000    -0.447528     0.174645    -0.143883     0.206414    -0.287253    -0.009753
0.193200     0.651379     0.053972    -0.109448     0.183230    -0.053863     0.180123
0.194400     1.572596    -0.872955    -0.717516     0.284512     0.092332     0.531687
0.195600    -0.432217    -0.294884    -1.008269     0.603484     0.368557     0.529201
0.196800    -0.661132     0.570256     0.362675     0.125795    -0.042295    -0.097908
0.198000     0.113739     0.143596     0.539827     0.514742     0.232149    -0.414197
0.199200     0.361637     0.425971    -0.344626     0.429696    -0.219815     0.599095
0.200400    -0.780113    -0.064621    -0.194990    -1.378903    -0.000532     0.584885
0.201600    -0.029772     0.380385     0.277532    -0.338703     0.358120    -0.048198
0.202800    -0.152266    -0.321311    -0.916752     0.684756     0.963908     0.183106
0.204000    -0.166601     0.088537    -0.283025     0.599283     0.254293    -0.121229
0.205200    -0.002619     0.729825     0.575758     0.136234    -0.433754    -0.552917
0.206400     0.010458     0.157257     0.153917     0.587530     0.308128    -0.286531
0.207600    -0.179151    -0.424709    -0.610135    -1.379344    -0.224838     0.470316
0.208800     0.049753    -0.839527     0.261530    -0.245784    -0.903362     0.752491
0.210000    -0.807844    -0.032741    -0.397303    -0.597224    -0.357664     0.264337
0.211200     0.262782     0.340006    -0.111040     0.215306     0.773820    -0.129463
0.212400     0.292924    -0.186771     0.420335     0.682656    -0.563302    -0.493553
0.213600    -0.021367     0.020843     0.804850     0.088662    -0.230476    -0.532701
0.214800    -0.842752     0.164965    -0.383413    -0.135475    -0.715547    -0.693473
0.216000    -0.362022    -0.390990     0.135109    -0.187523     0.176829     0.028417
0.217200     0.103240     1.165516    -0.636569    -0.183598     0.055999     0.632198
0.218400    -0.362817    -0.703908    -1.058285    -0.602678    -0.452201    -0.507416
0.219600     0.365321     0.140493     0.788368    -0.170752    -0.005552    -0.560701
0.220800    -0.909161    -0.522307    -0.138277     0.634107     0.359440     0.272998
0.222000    -0.663076     1.006896     0.020533     0.068017    -0.085398     0.233164
0.223200     0.266096     0.401420     0.271760    -0.024600     0.348819    -0.742048
0.224400     0.057550     0.729269    -1.207176    -0.261740    -0.502006     0.344387
0.225600     0.431484     0.116577    -0.607803     0.023923    -0.405659    -0.354621
0.226800     0.586033    -0.454633    -0.643181    -0.683692     0.727076     0.087152
0.228000     0.449798     0.445940    -0.125524     0.960620     0.255468     0.149291
0.229200     0.381280     0.023974     0.451513     1.056195     0.320573     0.372850
0.230400    -0.504583    -0.007028     0.779698    -0.098375    -0.554620     0.248503
0.231600    -0.627008     0.001015    -0.060586    -0.801921     0.227539     0.634081
0.232800    -0.204638     0.367855    -0.131383    -0.251023     0.208727     0.730850
0.234000     0.940635     0.300797     0.185895    -0.089856    -0.191592    -0.920570
0.235200     0.158555     0.131059     0.297519     0.247242     0.278951     0.366268
0.236400     0.316373     0.388963     0.068709     0.149436    -0.621238     0.647982
0.237600     0.182811    -0.356385    -0.081752     0.345245     0.338314     0.496521
0.238800     0.093870     1.022231     0.059512    -0.347761    -0.468829     0.037843
0.240000     0.254490     0.494645    -0.127504    -0.091979    -0.431914     0.268317
0.241200     0.189797     0.264522    -0.097957    -0.191218    -0.364991    -0.618617
0.242400    -0.098321     0.183881    -0.203112    -0.763846     0.227536     0.230418
0.243600     0.604783     0.109602     0.297621    -0.217265     0.425340    -0.111089
0.244800    -0.274074    -0.880336    -0.854520     0.400604     0.555743     0.424954
0.246000    -0.344736    -0.652365     0.222089    -0.001383    -0.235197     0.075748
0.247200     0.622859     0.083961    -0.407353    -0.342193     0.287669     0.417307
0.248400    -0.421405    -0.277649     0.263794     0.678063    -0.507726    -0.888584
0.249600     0.624067     0.315421    -0.935047    -0.022007     0.447997    -0.110018
0.250800     0.417606    -0.191585    -0.744149    -0.134880    -0.377638     0.775383
0.252000     0.429171     0.120381     0.405057    -0.267485     1.029976    -0.364241
0.253200    -0.057049     0.094347    -0.721611     0.888135     0.362426    -0.310595
0.254400    -0.564649    -0.047713     0.172251     0.199960     0.151944     0.349763
0.255600     0.365443    -0.440461     0.126552    -0.193980     0.602658     0.107964
0.256800     0.080540    -0.402545    -0.091844     0.454108    -0.165176     0.195498
0.258000     0.537669    -0.177968    -0.390305    -0.216087     0.007404     0.294336
0.259200     0.138084    -0.172297    -0.959768     0.616724     0.386535    -0.308727
0.260400     0.034063     0.413804    -0.719976    -0.624618     0.104787     0.128781
0.261600    -0.017497     0.023457    -0.126514     0.186628     0.076464     0.174870
0.262800     0.533122     0.512314    -0.053534    -0.256812    -0.423247    -0.252165
0.264000     0.372588    -0.004579     0.087792     0.958871     0.250597    -0.055799
0.265200    -0.140555     0.881542     0.402670    -0.628190    -0.244887     0.462610
0.266400     0.140624    -0.171606    -0.204225    -0.726651    -0.467369     0.093267
0.267600     0.748704    -0.001988    -0.137632    -0.152278    -0.113366     0.773527
0.268800     0.371993    -1.029274     0.157672    -0.172206     0.210843    -0.670462
0.270000    -0.226887     0.227899    -0.170935    -0.402847    -0.164055     0.324374
0.271200    -0.166329    -0.428596     0.248112     0.620591     0.600162     0.488023
0.272400    -0.073292     0.238070     0.614994     0.641627    -0.553667    -0.218725
0.273600     0.067557     0.464086     0.319006    -0.248502    -0.284618    -0.239369
0.274800    -0.055961     0.210586    -0.038913    -0.509744    -0.009501     0.669255
0.276000    -0.267602    -0.304890     0.353782     0.481780     0.633380     0.519630
0.277200    -0.343678     0.104065    -0.123810    -0.446177     0.072765     0.378617
0.278400     0.350229     0.137337    -0.180854     0.356192     0.014390    -0.125681
0.279600    -0.828625     0.136652    -0.300267    -0.032334    -0.208823     0.075068
0.280800     0.237321     0.010913    -0.500990    -0.198958    -0.627452    -0.283972
0.282000    -0.206538     0.267873     0.782794    -0.812089     0.488486     0.120780
0.283200     0.006036    -0.215360     0.210143    -0.596738     0.042404    -0.108126
0.284400     0.057486    -0.186332     0.351878     0.035689     1.035301     0.265974
0.285600     0.001792    -0.204045    -0.237628    -0.170105    -0.027038    -0.049410
0.286800    -0.348501    -0.072808    -0.184904    -0.140324    -0.518760    -0.025545
0.288000    -0.460106    -0.467899    -0.007919     0.280313    -0.003343     0.332229
0.289200     0.381028     0.179278     0.160286     0.200208    -0.534488     0.091768
0.290400    -0.083719     0.465503     0.130410    -0.150083     0.385329    -0.003606
0.291600     0.013120    -0.288702     0.184693     0.043834    -0.484508    -0.099803
0.292800     0.222528    -0.296380     0.143397     0.040686    -0.468454    -0.035476
0.294000     0.332609     0.967237    -0.448802    -0.490042    -0.015166     0.745408
0.295200    -0.089701    -0.454900    -0.302421     0.591314     0.179187     0.046563
0.296400     0.327385     0.367737     0.048245    -0.237304    -0.037375    -0.169763
0.297600    -0.624139     0.331320    -0.126077     0.648501    -0.590497     0.451565
0.298800     0.150949     0.332936     0.715721    -0.238216    -0.248949     0.046311
0.300000     0.599846    -0.360800    -0.648200     0.204190    -0.704590     0.458348
0.301200    -0.189245    -0.155072    -0.095823     0.359502     0.130507     0.036062
0.302400     0.138083     0.253418     0.274761     0.038401    -0.089327    -0.198583
0.303600    -0.626500     0.162150    -0.134695     0.133417    -0.433266     0.053528
0.304800    -0.386827     0.282460     0.346325    -0.236063    -0.520142     0.309333
0.306000     0.271591    -0.011501     0.842670     0.024274    -0.203870     0.010212
0.307200     0.534823    -0.289510     0.288567    -0.580996    -0.360807    -0.156085
0.308400     0.513808    -0.119181    -0.167381    -0.123168     0.160746     0.825383
0.309600    -0.149730     0.022892    -0.126057     0.253089    -0.062703     0.470172
0.310800    -0.182645     0.045578     0.558121    -0.020863     0.339698    -0.012537
0.312000     0.398846    -0.149719     0.129796     0.180339    -0.265471     0.093428
0.313200    -0.076057     0.121358     0.071407    -0.595886     0.132720     0.053463
0.314400     0.783841     0.161983     0.061475    -0.103578     0.369969    -0.058608
0.315600    -0.163552    -0.076406    -0.560625    -0.133181    -0.142389     0.254493
0.316800    -0.122878    -0.150940     0.119693    -0.253485    -0.477598     0.138002
0.318000     0.007328    -0.399282     0.364209     0.977224    -0.154649     0.350644
0.319200     0.167512     0.044210     0.179429     0.084862    -0.578649     0.279383
0.320400     0.381806    -0.215049    -0.154919     0.546311    -0.115571     0.211338
0.321600    -0.153331     0.244839     0.281078     0.381150    -0.148148    -0.416779
0.322800    -0.046708     0.333147    -0.648305    -0.850850     0.087324    -0.686853
0.324000    -0.145529    -0.041055    -0.141410    -0.481167     0.644949     0.214766
0.325200    -0.505163    -0.674240     0.125243     0.347975    -0.152764    -0.180151
0.326400    -0.277251     0.002329    -0.178741    -0.572787    -0.222907    -0.160105
0.327600     0.179510    -0.262366     0.203358     0.177672     0.087692    -0.144370
0.328800    -0.094557     0.324723     0.095186     0.074844    -0.132692     0.213250
0.330000     0.047545     0.336891    -0.129990    -0.131253    -0.304643     0.317736
0.331200     0.438622     0.293407     0.378206     0.048229     0.024242     0.186860
0.332400     0.482149    -0.045011     0.125287    -0.000245     0.330925     0.013399
0.333600     0.020998    -0.174157     0.119980    -0.332755     0.399826     0.680679
0.334800    -0.226134     0.268255    -0.397011     0.451593    -0.308821    -0.172400
0.336000    -0.800505     0.114397    -0.054660     0.144258     0.071809    -0.571515
0.337200    -0.027073     0.203234     0.350403     0.056738    -0.173946    -0.248093
0.338400     0.624286     0.883375     0.015590     0.649930     0.088764     0.357136
0.339600    -0.036776     0.397948    -0.061397    -0.305561     0.184203     0.032546
0.340800     0.368933    -0.292466    -0.560498    -0.201758     0.021880     0.177487
0.342000     0.072657     0.212849     0.440742    -0.027809     0.046897    -0.530447
0.343200    -0.056667    -0.177854     0.188816     0.226006     0.107424    -0.108537
0.344400    -0.297967    -0.186932     0.101263    -0.366972    -0.403626    -0.597809
0.345600    -0.044733     0.464774     0.301765    -0.080059    -0.233029    -0.509108
0.346800    -0.137523     0.192286    -0.446504     0.242267     0.168174     0.001576
0.348000    -0.043488    -0.499080    -0.049428     0.380878     0.180341    -0.049466
0.349200    -0.140655     0.149582     0.483426    -0.830348     0.481118    -0.195890
0.350400     0.122407    -0.367587    -0.389514    -0.029271     0.237963    -0.109159
0.351600     0.051284     0.055056    -0.080768     0.562820    -0.156300    -0.478359
0.352800    -0.314692     0.230027    -0.158088     0.239320    -0.532989    -0.377570
0.354000     0.050503     0.201690     0.022724    -0.490202    -0.214461     0.109372
0.355200     0.265289     0.304638    -0.208033    -0.328478    -0.271917    -0.114806
0.356400     0.442503    -0.222643    -0.444197     0.029215    -0.287876    -0.042973
0.357600     0.188365     0.154651    -0.200724    -0.240963     0.337289     0.799701
0.358800     0.122460    -0.145199     0.369628    -0.050849    -0.289950     0.229235
0.360000    -0.298072     0.069747    -0.537651     0.001873    -0.347689    -0.191698
0.361200     0.711707     0.337397    -0.167104     0.169918     0.206488    -0.021398
0.362400     0.051715     0.063396    -0.197687     0.140770    -0.225201     0.070193
0.363600     0.171057    -0.093291     0.201182    -0.048245    -0.231611     0.060997
0.364800     0.213006     0.170725     0.564551     0.257144     0.019211     0.550149
0.366000     0.089102    -0.439053     0.286826     0.280512     0.899251    -0.103723
0.367200     0.125733    -0.341153     0.351999    -0.100594     0.592262     0.112196
0.368400    -0.401463     0.296687    -0.114056     0.140931    -0.385277     0.106666
0.369600     0.328943    -0.003476     0.147643     0.201839    -0.212726    -0.513863
0.370800    -0.060508    -0.304059     0.029409    -0.738384     0.036711     0.077634
0.372000    -0.184938     0.585557     0.230544     0.163687     0.037283    -0.210411
0.373200     0.216593     0.162473    -0.144067    -0.475564     0.008986    -0.017803
0.374400    -0.159623     0.369648     0.234416    -0.458851     0.089237     0.068341
0.375600     0.284734     0.054247     0.156949     0.032474     0.293586    -0.497520
0.376800    -0.452432     0.318078     0.406836     0.032964    -0.705610    -0.562107
0.378000    -0.196639     0.308137     0.189182    -0.066222    -0.428856    -0.228883
0.379200     0.245991     0.346143    -0.762235    -0.372297    -0.191711     0.035276
0.380400     0.040004    -0.167245    -0.386063     0.134232    -0.371333    -0.191986
0.381600     0.341528    -0.207113     0.289878     0.082027    -0.021626    -0.087940
0.382800    -0.473265    -0.624495     0.027238     0.201008     0.425884     0.116112
0.384000    -0.140934    -0.493442    -0.114853     0.568081    -0.226569     0.081464
0.385200    -0.120403    -0.050288    -0.424586     0.364870    -0.084388    -0.186202
0.386400    -0.003864     0.100465     0.076672     0.008540    -0.057083     0.299595
0.387600     0.191274    -0.081634     0.054903    -0.177475     0.015524     0.097713
0.388800    -0.219202    -0.120828    -0.020340    -0.851126    -0.212979     0.537286
0.390000    -0.257342    -0.691843    -0.082847    -0.219730     0.337271     0.026905
0.391200    -0.272173     0.013885    -0.631838     0.162899     0.250451     0.113206
0.392400    -0.249878     0.197347     0.426702     0.656464    -0.518345     0.070656
0.393600    -0.138465    -0.165275     0.150638     0.121679    -0.087664     0.114611
0.394800     0.044776     0.253130     0.175869    -0.475281     0.026654    -0.129175
0.396000     0.044436     0.478006     0.209973    -0.205272     0.012071     0.329336
0.397200     0.184933    -0.014546     0.032284    -0.097910     0.214474     0.148065
0.398400     0.168110    -0.305332    -0.216599     0.198272    -0.008811     0.074747
0.399600    -0.144448    -0.041798     0.065417     0.461653     0.334190     0.096513
0.400800     0.047773     0.340712     0.474665    -0.438047    -0.067295    -0.120536
0.402000    -0.098235     0.078113    -0.390614    -0.016280    -0.424193    -0.103505
0.403200    -0.176098     0.029226     0.330790     0.176863     0.240733    -0.133083
0.404400    -0.443286    -0.501684    -0.030774    -0.295500     0.007668     0.062612
0.405600    -0.187888    -0.361061     0.046213    -0.144811     0.134816     0.525939
0.406800    -0.275359    -0.350713     0.207003     0.357972     0.465857     0.030348
0.408000    -0.223552    -0.217973     0.410503    -0.220660     0.198352     0.366467
0.409200    -0.324965    -0.055533     0.009717    -0.147154    -0.017457    -0.096452
0.410400     0.088237     0.118627    -0.082217     0.330833    -0.211755    -0.073989
0.411600    -0.152494     0.170604     0.028666    -0.273611    -0.206714     0.240771
0.412800    -0.156650    -0.301164    -0.002487     0.121732     0.297412    -0.182509
0.414000    -0.043241    -0.138138     0.084527    -0.145709     0.256282    -0.043598
0.415200    -0.208808    -0.332958    -0.513470     0.193547     0.042377    -0.177407
0.416400    -0.039349    -0.224313     0.306256     0.316046     0.053540    -0.025084
0.417600    -0.123449     0.352707     0.291898    -0.183251    -0.168400    -0.118396
0.418800     0.401631    -0.283481     0.208665    -0.321304    -0.173220     0.052379
0.420000     0.385450    -0.156607     0.326115     0.024536     0.150152    -0.388686
0.421200     0.360967    -0.013011     0.182800     0.117633     0.191062     0.166902
0.422400    -0.049837     0.091606    -0.195620     0.199806     0.488710     0.666863
0.423600     0.001821     0.152758    -0.049035     0.157284    -0.317612     0.439127
0.424800     0.392761    -0.151077     0.625036     0.537732    -0.230062     0.376835
0.426000    -0.448400    -0.237594    -0.068147    -0.169107     0.037435     0.048701
0.427200    -0.189409    -0.196415    -0.114547     0.012388    -0.065227     0.101853
0.428400     0.009269    -0.155019     0.126021    -0.122068     0.293206    -0.104635
0.429600     0.088105    -0.074577     0.060544    -0.410324    -0.277207     0.230920
0.430800    -0.001829     0.197150     0.113615    -0.256125    -0.086420    -0.096381
0.432000    -0.157310    -0.445126     0.116121     0.018854     0.023747    -0.415584
0.433200    -0.609880     0.138835     0.178901     0.137283    -0.139679    -0.269806
0.434400     0.220110     0.228777     0.108029    -0.569730    -0.210284     0.231638
0.435600     0.071348    -0.113744     0.534759    -0.229155     0.009823    -0.060725
0.436800     0.241447     0.541946    -0.214153    -0.220276     0.271437     0.405523
0.438000     0.386251     0.116697    -0.244148    -0.173795     0.002496     0.251269
0.439200    -0.093535    -0.162770     0.020154     0.267130     0.011948    -0.082366
0.440400     0.015289     0.107307     0.077099     0.297372    -0.319987     0.189015
0.441600    -0.182028     0.474043    -0.190576    -0.291046    -0.129714    -0.398807
0.442800     0.179048     0.062153     0.321561    -0.104407     0.113691    -0.555166
0.444000     0.034322     0.224610     0.407796    -0.112867    -0.398061    -0.043479
0.445200     0.364998     0.517147    -0.009912     0.080162     0.100825     0.136369
0.446400     0.326313    -0.196564    -0.244225    -0.374379     0.262098     0.232657
0.447600    -0.194920    -0.578965    -0.250648    -0.093106    -0.148949     0.243191
0.448800    -0.476675     0.433999     0.270452     0.381142    -0.035208    -0.074734
0.450000    -0.406203    -0.162837     0.410939    -0.174066    -0.596823    -0.134303
0.451200    -0.532862     0.183801    -0.097807    -0.032527     0.001788     0.083370
0.452400    -0.094714     0.005886     0.158785    -0.130117     0.169081     0.268254
0.453600     0.000241    -0.136230     0.014385    -0.046850     0.129494     0.347161
0.454800     0.399310     0.051588    -0.059191    -0.415749    -0.339337     0.111972
0.456000    -0.272203     0.254099    -0.450910    -0.024369     0.183631    -0.354331
0.457200    -0.163165    -0.218381     0.084747    -0.093831    -0.355211     0.652974
0.458400     0.065894    -0.146285    -0.043573    -0.139836    -0.152014     0.030721
0.459600     0.108494     0.052728     0.179770    -0.019902     0.046510     0.261524
0.460800    -0.154421     0.374339    -0.029043     0.200752    -0.153567     0.110867
0.462000     0.424690    -0.233954    -0.309122    -0.079920     0.327094     0.010878
0.463200    -0.034598    -0.054280    -0.132099     0.195521     0.120387    -0.017927
0.464400    -0.032539    -0.103392    -0.010194     0.212277     0.079943     0.203647
0.465600    -0.063006    -0.205382     0.311083    -0.178197    -0.058277    -0.248262
0.466800     0.051029     0.198776    -0.201232    -0.194542    -0.247230    -0.205016
0.468000     0.219407     0.070897    -0.151310     0.259759     0.030213    -0.028270
0.469200     0.295261    -0.054225     0.195218    -0.052310    -0.120564     0.263638
0.470400     0.226362     0.055119    -0.368617    -0.009244     0.326061     0.471634
0.471600    -0.037949    -0.395325     0.041165    -0.244884    -0.022982    -0.093485
0.472800     0.025626     0.316776     0.297769     0.402698    -0.186973    -0.113018
0.474000    -0.423184     0.142333     0.121997    -0.051459     0.285996     0.038782
0.475200     0.031792    -0.072415     0.276727    -0.149040    -0.050807    -0.228030
0.476400    -0.047227    -0.146096    -0.373494     0.136841     0.116258     0.073169
0.477600    -0.034494    -0.071868    -0.003186     0.020125    -0.098493    -0.453923
0.478800    -0.047385    -0.139980    -0.267670     0.093661     0.188001     0.330860
0.480000    -0.467445     0.083559     0.043215     0.043208     0.011103    -0.360961
0.481200    -0.522857    -0.356455     0.219239    -0.153763    -0.024807    -0.047190
0.482400    -0.065149     0.262982     0.252222     0.115539    -0.098576    -0.053973
0.483600     0.134407    -0.052639    -0.247953     0.128013    -0.190013     0.007921
0.484800    -0.021126    -0.331880    -0.264787     0.303675     0.301854     0.511642
0.486000     0.108245     0.178309    -0.130712    -0.184412    -0.095211     0.224038
0.487200     0.123523    -0.035851     0.143701     0.244556    -0.258796    -0.143712
0.488400    -0.186799     0.115615     0.128157     0.044042     0.216455     0.138873
0.489600     0.011726    -0.041547    -0.005019     0.181094    -0.175670     0.226183
0.490800     0.122972     0.154577    -0.159607    -0.025537    -0.300381    -0.299400
0.492000    -0.093671     0.160960     0.090849     0.311566    -0.008185    -0.188622
0.493200    -0.049407     0.203029     0.111438    -0.018499    -0.027511     0.258035
0.494400     0.073018     0.224082    -0.125785     0.048749     0.151284    -0.121920
0.495600    -0.159061    -0.115809    -0.362049    -0.321477    -0.159860    -0.026891
0.496800     0.029015     0.102849    -0.495780    -0.107079    -0.232324    -0.296448
0.498000    -0.227745     0.306170    -0.227104    -0.005784    -0.081634    -0.073307
0.499200     0.072469     0.072590    -0.083597     0.232615    -0.175601     0.003034
0.500400    -0.232553     0.053026     0.123935    -0.015581    -0.073364    -0.070830
0.501600    -0.105735     0.466637    -0.190944    -0.022377     0.136535     0.377234
0.502800    -0.390963    -0.129960     0.180325     0.235100    -0.177904    -0.017453
0.504000     0.106233     0.182166    -0.050083     0.058694    -0.195539     0.037051
0.505200    -0.002065    -0.209515    -0.028366    -0.204782     0.115054     0.370685
0.506400    -0.168462    -0.166587     0.136331    -0.125591     0.085362    -0.428037
0.507600    -0.254158     0.189706     0.393629    -0.192812     0.011015    -0.205677
0.508800    -0.127329     0.027341    -0.137202     0.311706    -0.259546    -0.005280
0.510000    -0.121953    -0.159881    -0.040493    -0.028747    -0.020915    -0.163295
0.511200     0.215560    -0.175020     0.150423     0.042117     0.158521     0.162579
0.512400    -0.093992    -0.145415    -0.127075    -0.084680    -0.059658     0.187097
0.513600    -0.041403    -0.129979     0.236293     0.001252     0.012870    -0.033574
0.514800    -0.292995     0.078041     0.069411     0.050278    -0.250855     0.032177
0.516000    -0.281871    -0.224215    -0.084170    -0.067982     0.124758     0.169407
0.517200    -0.104440     0.056555     0.054197    -0.021247     0.091487    -0.111357
0.518400     0.012613    -0.403477     0.104542     0.241166    -0.121496     0.071846
0.519600    -0.191637     0.177398     0.143243    -0.079858     0.333848     0.042042
0.520800    -0.085842     0.256407     0.076183    -0.029597     0.124001    -0.197305
0.522000    -0.235040    -0.273487    -0.141493     0.337919    -0.038772    -0.049538
0.523200     0.162582    -0.162984    -0.050117    -0.259889    -0.152868    -0.109624
0.524400    -0.304755    -0.221395    -0.051680    -0.027707    -0.114540     0.017291
0.525600    -0.233971     0.172131     0.260453    -0.148522    -0.083979     0.060299
0.526800     0.476787     0.037865     0.188815    -0.166590    -0.062339     0.154881
0.528000     0.044519    -0.226475     0.068263     0.067672     0.141599     0.192151
0.529200     0.182323    -0.033429    -0.093878     0.157716     0.051847     0.223754
0.530400    -0.081724    -0.029168     0.359801    -0.247304    -0.389135    -0.128787
0.531600    -0.339735    -0.163500     0.114338     0.079214    -0.212578    -0.050598
0.532800    -0.075521     0.166576     0.208412     0.172891     0.151539    -0.070705
0.534000     0.146756     0.084562     0.171813     0.123099     0.233471     0.156779
0.535200    -0.112763    -0.169863    -0.049675    -0.069017     0.034782     0.067205
0.536400    -0.126449     0.239844     0.374466     0.102675     0.195919     0.108552
0.537600     0.234473     0.119083    -0.225163     0.009549     0.098868     0.107980
0.538800    -0.273003    -0.069834    -0.098751     0.180061    -0.278170    -0.105443
0.540000    -0.211508     0.246304    -0.031120     0.195246    -0.206587     0.021251
0.541200    -0.182937     0.148641     0.163758     0.366914    -0.219252    -0.111516
0.542400     0.248012     0.117192     0.193683    -0.000635    -0.121473     0.511424
0.543600    -0.133407     0.025069     0.024620    -0.163365    -0.116964     0.111976
0.544800    -0.105263    -0.176290    -0.150736     0.171833     0.010485     0.118989
0.546000     0.168399     0.290382     0.288711    -0.118294     0.025766     0.028385
0.547200     0.119005     0.139147     0.135591    -0.091219     0.100993     0.022027
0.548400    -0.039544    -0.055253     0.124861    -0.366584    -0.216503     0.179740
0.549600    -0.099560     0.048006     0.043234    -0.168144    -0.212319     0.105935
0.550800     0.138096     0.040869    -0.061280     0.012061     0.058516     0.136125
0.552000     0.158566     0.226467    -0.216012    -0.269384    -0.227836     0.153017
0.553200     0.009725     0.380127     0.114124    -0.023189     0.190284    -0.029644
0.554400     0.249874    -0.010838     0.114567     0.141848    -0.037081     0.383542
0.555600     0.176694     0.051138     0.011486    -0.005416    -0.131141    -0.160307
0.556800    -0.459145     0.003388     0.035410     0.088195    -0.122428     0.013591
0.558000     0.055482     0.081293     0.057578    -0.193381    -0.120829     0.391248
0.559200     0.000774    -0.058806     0.026370    -0.358367     0.247789     0.233593
0.560400    -0.125089    -0.142929     0.145552    -0.020385     0.064997     0.079314
0.561600     0.019114    -0.072865     0.506444     0.111699    -0.096030    -0.166517
0.562800    -0.120788     0.268245    -0.233276     0.031797    -0.045374    -0.159546
0.564000    -0.091995     0.067628    -0.070812     0.030675    -0.016227     0.042161
0.565200     0.031396    -0.252130     0.155651    -0.120464     0.010760     0.111671
0.566400     0.224295     0.030549     0.195759    -0.140555    -0.212949    -0.029614
0.567600    -0.224461     0.032907    -0.175517     0.050211     0.158128     0.109996
0.568800    -0.319393    -0.102461    -0.151812    -0.386794    -0.231089    -0.085946
0.570000    -0.070330    -0.013185    -0.179646     0.006577    -0.047205     0.028067
0.571200     0.330970    -0.099497     0.201690    -0.051239    -0.108440    -0.152144
0.572400     0.144315    -0.177696    -0.095373    -0.129785     0.186561    -0.042167
0.573600     0.082435    -0.145248    -0.131287    -0.082046    -0.194677    -0.074513
0.574800    -0.006424    -0.188646     0.035660     0.169349    -0.072789     0.163127
0.576000    -0.039385    -0.094360    -0.057254     0.155609    -0.152537     0.258416
0.577200    -0.023729    -0.093092    -0.180760     0.177990    -0.277598    -0.164649
0.578400    -0.069762     0.012535    -0.045871    -0.043280     0.082486    -0.288687
0.579600    -0.129143     0.013361     0.283470    -0.159289    -0.125898    -0.030026
0.580800    -0.009417     0.069372     0.136885    -0.002897    -0.092579     0.048318
0.582000     0.215465    -0.053188    -0.063821    -0.012618     0.025556     0.190705
0.583200     0.233570    -0.007661     0.142653    -0.169909     0.232424     0.213534
0.584400    -0.169221    -0.076989    -0.211905    -0.027084     0.048552     0.002986
0.585600    -0.244060     0.343544     0.025618    -0.016536    -0.114453     0.159994
0.586800    -0.136208     0.111769    -0.013703     0.010503     0.139622    -0.159080
0.588000     0.063605     0.180540     0.019160     0.088664    -0.090337     0.035798
0.589200    -0.029100    -0.020669    -0.089532     0.175045     0.160914     0.147615
0.590400    -0.283248    -0.250482    -0.063909     0.135062     0.129733    -0.068483
0.591600    -0.129184     0.001869    -0.023367     0.212527    -0.141267     0.264452
0.592800    -0.011660     0.183457    -0.071544    -0.074782     0.003685    -0.162779
0.594000    -0.057668    -0.093160     0.123399    -0.361537     0.142751     0.184451
0.595200     0.027510     0.003403    -0.084594     0.114907    -0.023458     0.042604
0.596400    -0.235691     0.060224    -0.080118    -0.094536     0.021197    -0.153955
0.597600    -0.240782     0.199833     0.159562     0.161034    -0.167723     0.157629
0.598800     0.131947    -0.140208    -0.100947     0.003941    -0.162943    -0.133613
0.600000    -0.102196     0.232150    -0.168912    -0.025030     0.163737     0.285046
0.601200    -0.134523     0.051357     0.070763     0.088200     0.068985    -0.002548
0.602400    -0.239198    -0.283785     0.110842    -0.108486     0.183952    -0.030656
0.603600    -0.226860     0.033497    -0.038632     0.081037     0.204236     0.060750
0.604800    -0.334464    -0.006293     0.038145     0.042523    -0.274097    -0.085310
0.606000    -0.030122    -0.051511    -0.066164    -0.097929    -0.029971     0.025900
0.607200     0.305520     0.062146    -0.071399     0.078806     0.140133     0.272887
0.608400    -0.295913    -0.042659    -0.218606     0.161389     0.072679    -0.244962
0.609600     0.022727    -0.101572    -0.104407    -0.000691    -0.044281     0.096514
0.610800     0.079314     0.141839    -0.183505     0.120908     0.003499    -0.243998
0.612000    -0.054177    -0.147880     0.159250     0.056397     0.083702     0.042845
0.613200     0.025793     0.113834     0.051129     0.176040    -0.007583    -0.035933
0.614400     0.125853     0.045270     0.009113    -0.169901     0.005847     0.101016
0.615600    -0.023821    -0.105696     0.000421     0.168209     0.031881    -0.125059
0.616800    -0.125081     0.015011     0.089140    -0.031418    -0.053478     0.037668
0.618000     0.143173     0.104732    -0.033498    -0.007860     0.193487     0.200816
0.619200     0.148953     0.139432    -0.004253     0.103007    -0.055457    -0.079712
0.620400     0.009541     0.139888     0.023976    -0.069851    -0.388467    -0.003548
0.621600    -0.030753    -0.068682    -0.164534    -0.317508    -0.021959     0.021153
0.622800    -0.105618     0.059541     0.110214     0.270332     0.043245    -0.091582
0.624000     0.040460    -0.075875    -0.005987     0.108255     0.004311     0.224516
0.625200     0.207868     0.028538    -0.004623    -0.046911    -0.101805     0.033793
0.626400    -0.041806     0.093012    -0.077574     0.085323    -0.270219    -0.050839
0.627600     0.003829     0.152327    -0.027318     0.078792     0.174144    -0.161655
0.628800    -0.008335    -0.077914    -0.008973    -0.095824    -0.193643     0.266043
0.630000    -0.079742     0.236273     0.185530    -0.154701     0.048341    -0.114953
0.631200     0.137496     0.077932    -0.241063     0.041966     0.130133     0.084448
0.632400    -0.100546     0.152172    -0.151131     0.005762    -0.140697     0.092030
0.633600     0.009330     0.028068    -0.057205     0.004201    -0.113692    -0.257540
0.634800     0.073921    -0.080648     0.000164     0.049740     0.035170     0.047318
0.636000     0.120051    -0.130029     0.046536     0.015428     0.238430    -0.033854
0.637200     0.177704     0.195382    -0.069335     0.076680    -0.113291    -0.109354
0.638400    -0.113000     0.015641    -0.018222    -0.007600    -0.011274    -0.121725
0.639600     0.188459     0.198765     0.036979    -0.114450    -0.009532    -0.147833
0.640800    -0.218493    -0.016376     0.142582    -0.105863     0.112175    -0.231423
0.642000    -0.154767    -0.049131    -0.177546     0.061415    -0.262349     0.071260
0.643200     0.045356     0.191639     0.009041    -0.122541     0.095945     0.001677
0.644400    -0.079397    -0.018052     0.039430     0.013959     0.030491     0.082150
0.645600     0.071007    -0.053848     0.157344     0.101981    -0.115600    -0.029454
0.646800    -0.127171     0.061241     0.068048     0.026346     0.248645    -0.077221
0.648000    -0.112164    -0.011506     0.083935    -0.115339     0.001704     0.061637
0.649200     0.007676    -0.076872     0.021202    -0.040789     0.025313    -0.061836
0.650400    -0.118797    -0.018207    -0.077856    -0.062792     0.062687     0.105195
0.651600    -0.035459     0.001187    -0.006614    -0.247720    -0.040649     0.082655
0.652800    -0.163751    -0.159472     0.070682    -0.002143     0.190265    -0.018218
0.654000     0.006457    -0.005123     0.107013     0.011650     0.251517     0.075902
0.655200    -0.111746    -0.027553     0.107679     0.076999    -0.047133     0.001207
0.656400     0.099092     0.029050    -0.251723    -0.062416     0.096613    -0.173595
0.657600     0.010806    -0.252212     0.206304     0.100912     0.016742     0.062699
0.658800    -0.111979     0.123348     0.166478     0.054494    -0.020103    -0.117742
0.660000    -0.027696     0.217007    -0.049211     0.048276    -0.053438    -0.061977
0.661200    -0.024537     0.059208     0.156834    -0.051393    -0.065143    -0.150620
0.662400    -0.006888    -0.066929     0.018982    -0.080582     0.009931     0.144392
0.663600    -0.039094    -0.011057     0.068474    -0.162159    -0.141262     0.095642
0.664800    -0.078951    -0.071550    -0.124667    -0.056082    -0.119507     0.176643
0.666000    -0.030735    -0.171465     0.213548     0.097469     0.005490    -0.086167
0.667200     0.086852     0.027541     0.029867    -0.081976     0.037394    -0.086566
0.668400    -0.063763    -0.093129     0.167171     0.136815     0.080383    -0.045238
0.669600    -0.009845    -0.132839    -0.075125     0.069391    -0.088928    -0.027982
0.670800    -0.079239     0.112250     0.079177    -0.161880    -0.162191     0.099962
0.672000     0.058286     0.076352     0.126208    -0.120535     0.111086     0.049124
0.673200    -0.059115    -0.056584    -0.061908     0.079953    -0.087808     0.116299
0.674400     0.039054    -0.054858    -0.123857     0.155406     0.059716     0.155152
0.675600    -0.062396     0.183694     0.036301    -0.098950    -0.103328    -0.026959
0.676800    -0.258599    -0.028630     0.066989    -0.156097    -0.048561    -0.090093
0.678000    -0.095421     0.231531    -0.009007    -0.019982     0.078483    -0.072037
0.679200     0.078939     0.012184     0.083676     0.222715    -0.010000    -0.038773
0.680400     0.006793    -0.022967    -0.025710    -0.038041     0.052178     0.123055
0.681600     0.001904    -0.048510    -0.027668    -0.052765    -0.048385    -0.156905
0.682800     0.018354    -0.032573     0.043459    -0.106747     0.163229    -0.069348
0.684000    -0.260125    -0.011385     0.128479     0.073318    -0.088715    -0.200544
0.685200    -0.042491    -0.026561    -0.065824    -0.157434    -0.074119    -0.090956
0.686400    -0.079962     0.094392    -0.011882    -0.062950    -0.122355     0.002294
0.687600    -0.085690     0.065707    -0.092560     0.017676    -0.005303     0.103879
0.688800    -0.015229     0.135943    -0.046721    -0.044409    -0.100976     0.110039
0.690000    -0.081375    -0.124365     0.103248    -0.044997     0.015716    -0.075224
0.691200    -0.194794     0.077098     0.086521     0.170639    -0.022025     0.028691
0.692400    -0.191609    -0.132417    -0.177248     0.015540     0.014296    -0.027906
0.693600    -0.046485     0.084366    -0.037535    -0.045427    -0.117565    -0.051629
0.694800    -0.055576     0.091213     0.239425    -0.130910    -0.047948    -0.134362
0.696000     0.123298     0.164278     0.151077    -0.213382     0.106937     0.127276
0.697200    -0.001511    -0.163180    -0.029740    -0.024966    -0.039879    -0.099442
0.698400     0.210398    -0.000969     0.046010    -0.087771     0.133381     0.114433
0.699600     0.108255     0.056484     0.032377     0.116693    -0.042812    -0.095300
0.700800     0.044129     0.106298    -0.107171     0.117603     0.011286     0.160178
0.702000     0.011525     0.060718     0.064026     0.063183     0.191187    -0.065178
0.703200     0.121285    -0.163511     0.179843    -0.058517     0.033650    -0.040072
0.704400    -0.001629     0.048723     0.098484    -0.029831     0.090528     0.083309
0.705600     0.107802    -0.002320     0.019933    -0.034896     0.064792     0.183153
0.706800     0.043382    -0.115638    -0.071500    -0.164894     0.082953     0.063004
0.708000     0.097436    -0.014502     0.011944    -0.063223     0.048179    -0.067605
0.709200     0.037768     0.021714    -0.106683    -0.070263     0.060592    -0.069005
0.710400     0.147849     0.116269     0.083301    -0.160530    -0.118169     0.091447
0.711600     0.014551    -0.002063    -0.067430    -0.027873    -0.016359    -0.045828
0.712800     0.094741    -0.252621    -0.081930    -0.011960    -0.014576     0.159973
0.714000    -0.015587    -0.071695     0.095739    -0.018916    -0.032197    -0.105871
0.715200    -0.112497    -0.192915    -0.176134    -0.067337     0.096934     0.158436
0.716400    -0.083029    -0.130263     0.019837     0.054344    -0.117307    -0.260345
0.717600     0.048974    -0.015991     0.226355    -0.194921    -0.238043    -0.007970
0.718800     0.075359     0.208661    -0.014176    -0.140369     0.014450     0.049388
0.720000     0.011517    -0.103219     0.001602     0.010218    -0.079023    -0.051745
0.721200     0.012096    -0.094195    -0.019384     0.124871     0.065863     0.066152
0.722400    -0.033638     0.066368    -0.015348    -0.108690     0.087839    -0.074197
0.723600    -0.042007    -0.129552    -0.002345    -0.024633     0.158741    -0.025823
0.724800     0.029838     0.081839     0.134290    -0.116217     0.075118    -0.151509
0.726000     0.065460     0.006760    -0.041394    -0.120349    -0.042931     0.011111
0.727200    -0.041127     0.040756    -0.055085     0.120262     0.085031     0.105844
0.728400     0.122165     0.094398    -0.203144    -0.034133     0.116912     0.096639
0.729600     0.115554     0.081160     0.100776    -0.016547     0.181878    -0.050691
0.730800     0.000232    -0.044722    -0.016968     0.079949     0.076317    -0.092974
0.732000     0.207178     0.006814     0.025257     0.010209     0.007142    -0.102799
0.733200    -0.127411     0.001198    -0.035629    -0.038329     0.046945     0.036767
0.734400     0.186574     0.035855    -0.154522    -0.210023     0.083341    -0.116542
0.735600    -0.038866     0.201668    -0.035153    -0.068074    -0.013301    -0.117754
0.736800    -0.025583    -0.087982     0.187308    -0.146956     0.048415     0.085547
0.738000    -0.074688    -0.139802    -0.114475     0.017246     0.083658    -0.115231
0.739200    -0.131571     0.012091     0.093277     0.036097     0.007072     0.124220
0.740400    -0.115536    -0.062807     0.224286    -0.026289    -0.129586    -0.105904
0.741600     0.000934     0.005465     0.151163     0.074893     0.005834     0.005876
0.742800    -0.038316     0.194794     0.075908    -0.066813     0.109498     0.144147
0.744000     0.104281     0.054573    -0.162055     0.036153     0.014468    -0.077010
0.745200    -0.132029    -0.003557    -0.031553    -0.150292    -0.052347    -0.079185
0.746400     0.001198     0.085196     0.071214    -0.025666    -0.017361    -0.128358
0.747600    -0.034908    -0.001345     0.170082     0.041455    -0.023714    -0.030591
0.748800    -0.039284     0.047425     0.175543     0.216401    -0.037516    -0.164033
0.750000    -0.004016    -0.078044     0.102367     0.086128    -0.215230    -0.253336
0.751200    -0.032833     0.110179     0.108383    -0.017393    -0.105723     0.033286
0.752400     0.021980    -0.014257     0.100847     0.092203     0.083645    -0.030714
0.753600    -0.012293     0.100342     0.054352    -0.024502     0.026505     0.063869
0.754800    -0.018678    -0.089293     0.002864     0.159364     0.007337    -0.080507
0.756000     0.059831    -0.003894     0.034279    -0.053241     0.036918     0.076933
0.757200     0.048703     0.062790     0.020486    -0.005982     0.048488    -0.066540
0.758400    -0.081550     0.043620     0.013761    -0.048244    -0.000848     0.070402
0.759600    -0.063011     0.058580     0.070526     0.078815     0.020857    -0.010551
0.760800    -0.068343    -0.138257     0.010045     0.085485     0.037992    -0.118864
0.762000    -0.045993    -0.074393    -0.107036     0.127346    -0.082261     0.112903
0.763200     0.049066     0.041974     0.100996     0.051377     0.053767     0.033079
0.764400    -0.020387    -0.105966     0.130158     0.042534    -0.007138    -0.012641
0.765600     0.039106     0.187407     0.172312    -0.163602     0.035057    -0.061739
0.766800    -0.063436     0.028350     0.139829     0.019272    -0.026128    -0.061677
0.768000     0.029964     0.005450     0.007863    -0.007946    -0.106541     0.151242
0.769200     0.116952    -0.143635     0.109998     0.055352    -0.002242     0.023924
0.770400     0.042770    -0.036916    -0.200146    -0.014221    -0.019814    -0.016986
0.771600     0.005038    -0.213588    -0.130528     0.036385    -0.042802    -0.070136
0.772800     0.057823     0.089813    -0.033831    -0.039091     0.071678     0.046922
0.774000    -0.013218    -0.128101    -0.085532    -0.025525    -0.033426     0.008103
0.775200    -0.015495     0.042740    -0.119434    -0.058102     0.064187     0.015962
0.776400     0.085083    -0.016597    -0.052223    -0.026690    -0.061275    -0.022042
0.777600     0.015415    -0.172136     0.023493    -0.017953    -0.113977     0.109703
0.778800     0.056320    -0.208005     0.078728    -0.088509    -0.066323     0.095813
0.780000     0.012168     0.051220    -0.011835     0.057397     0.141593    -0.025912
0.781200    -0.047898    -0.025877     0.006625     0.105185     0.023679    -0.061895
0.782400    -0.107374    -0.069072     0.035639     0.007595     0.045206     0.114614
0.783600     0.127333     0.008410     0.035767    -0.065398    -0.024683    -0.082418
0.784800     0.013329     0.043552    -0.030738     0.042157    -0.036048    -0.028928
0.786000    -0.011087    -0.156025     0.028111    -0.168440    -0.067812    -0.005204
0.787200    -0.016440    -0.047707     0.086368     0.104550     0.051603    -0.093585
0.788400    -0.030959     0.022469     0.048403     0.040518     0.008261     0.019551
0.789600     0.007472    -0.021684     0.006101    -0.076996    -0.059270    -0.026417
0.790800     0.043281     0.000233     0.059836    -0.044207    -0.048477     0.016646
0.792000    -0.033676    -0.166141    -0.099167    -0.091961    -0.106557     0.005008
0.793200    -0.098529     0.135478     0.001579    -0.037763     0.003937     0.048282
0.794400    -0.122796     0.033072     0.006117    -0.003415     0.032780     0.037098
0.795600     0.091023     0.123717     0.064805     0.003819    -0.143201     0.025391
0.796800    -0.107076    -0.018010    -0.032763     0.081929     0.102955     0.004723
0.798000    -0.043601    -0.075257    -0.039567    -0.019589     0.076326    -0.088700
0.799200    -0.145096    -0.039093    -0.037316    -0.107683     0.087094    -0.001692
0.800400     0.056005     0.083228    -0.099534     0.008921    -0.099570     0.023391
0.801600    -0.122129    -0.198942     0.004563     0.038727    -0.013994    -0.038879
0.802800    -0.088039    -0.069509    -0.069233    -0.030697     0.119707    -0.117350
0.804000    -0.073146    -0.032570     0.008498     0.024593    -0.094015     0.044765
0.805200    -0.042545    -0.053117     0.084549     0.034601    -0.059169     0.061404
0.806400    -0.064357    -0.025741     0.012241    -0.030398     0.076279    -0.142397
0.807600    -0.005045    -0.118390     0.056831    -0.195796    -0.168350     0.046666
0.808800    -0.142157     0.040206     0.029347    -0.042335     0.033146    -0.054289
0.810000     0.160599    -0.013443    -0.021398    -0.041706     0.085629     0.017986
0.811200     0.008530    -0.036529    -0.094019    -0.022264     0.081750    -0.022362
0.812400     0.071490    -0.127034    -0.018780     0.067998    -0.051381    -0.003665
0.813600    -0.021853    -0.028012     0.076781     0.041700     0.008384     0.041161
0.814800    -0.078877     0.021958    -0.085372     0.067966     0.045343    -0.020322
0.816000     0.066334    -0.066116     0.054829    -0.016320    -0.037650    -0.080722
0.817200    -0.035501    -0.061650    -0.091757     0.041103     0.014289    -0.029944
0.818400    -0.055318     0.160321    -0.095841     0.044723     0.049164    -0.040043
0.819600    -0.118642    -0.030160     0.021690     0.100474    -0.045561    -0.109518
0.820800    -0.005986     0.032958     0.050356    -0.083868    -0.110174    -0.025827
0.822000     0.040692    -0.083967     0.008629     0.005763     0.084685     0.108357
0.823200     0.082132     0.033064    -0.050692    -0.096738    -0.053010     0.078789
0.824400    -0.033581    -0.030202     0.080506     0.095047    -0.103936     0.102742
0.825600    -0.094450     0.081247    -0.049423    -0.028268    -0.019083    -0.033746
0.826800     0.028633     0.135677     0.060509     0.001731    -0.049450     0.044135
0.828000    -0.066046    -0.016973    -0.019267    -0.131080     0.038936     0.021649
0.829200     0.114830     0.001942    -0.033296    -0.010097    -0.119863    -0.017214
0.830400     0.072787     0.053165    -0.005677     0.038353     0.008760    -0.081597
0.831600    -0.056981     0.033266    -0.096174    -0.130478     0.107244    -0.000388
0.832800    -0.061785     0.020502     0.113315     0.046319    -0.045444     0.008966
0.834000    -0.034564    -0.058015    -0.038352    -0.109426    -0.016356     0.028543
0.835200     0.135823     0.077841     0.082846     0.005680     0.037348     0.010929
0.836400     0.013617     0.076509     0.021305     0.114912     0.030651     0.139518
0.837600    -0.018776     0.056924    -0.082425     0.012405    -0.057275    -0.031765
0.838800     0.087330     0.021473     0.105050    -0.037683    -0.018429     0.022506
0.840000    -0.026520     0.034327    -0.031923     0.105550    -0.051410     0.033834
0.841200     0.034838    -0.063160    -0.051501     0.104059    -0.016607     0.081628
0.842400    -0.064011     0.039828    -0.135727    -0.142845    -0.088231     0.016917
0.843600     0.016829    -0.066348     0.137170     0.139819    -0.055128    -0.140995
0.844800    -0.137487     0.062829    -0.022543    -0.052519    -0.073638    -0.110875
0.846000    -0.070118     0.013372    -0.007273     0.049503    -0.038571    -0.001411
0.847200    -0.051999     0.077277    -0.025246     0.065673    -0.007746    -0.004343
0.848400     0.010268    -0.055685    -0.012429    -0.045937    -0.060070    -0.013847
0.849600     0.149684    -0.018437    -0.020377     0.088560     0.096841    -0.070024
0.850800     0.093094     0.051052    -0.178019    -0.010613     0.017657     0.044144
0.852000     0.024149    -0.033510     0.107274    -0.175878     0.001297     0.026815
0.853200    -0.000260    -0.102452    -0.068321     0.026927     0.074455    -0.029098
0.854400    -0.012800     0.052394    -0.072181    -0.061010    -0.071341    -0.020225
0.855600    -0.100400    -0.071153     0.065293     0.007188     0.047974     0.015213
0.856800    -0.019120     0.003258    -0.005623    -0.016575     0.124769    -0.085613
0.858000     0.043833    -0.052277    -0.023108    -0.040240     0.054542    -0.048728
0.859200    -0.017031    -0.103206    -0.052726     0.011612    -0.063747     0.030579
0.860400    -0.040462    -0.037732     0.009454     0.040179     0.029588    -0.008074
0.861600     0.077750    -0.024998    -0.059455     0.078982    -0.070512    -0.070999
0.862800     0.055517     0.005999     0.004256     0.056149     0.130000     0.031979
0.864000    -0.068117     0.029477     0.006556     0.014961     0.013069    -0.086795
0.865200    -0.030051     0.045502    -0.073357    -0.055147    -0.050123    -0.065011
0.866400     0.056029    -0.058104     0.039985     0.056691    -0.024157     0.080959
0.867600    -0.013923    -0.000550    -0.035034    -0.057661    -0.036244     0.015434
0.868800    -0.115595    -0.091461    -0.056111     0.048594    -0.023383    -0.042511
0.870000    -0.049120     0.064678    -0.041866     0.082700     0.057451    -0.064575
0.871200     0.046565     0.026605     0.026710     0.027631    -0.068635    -0.042210
0.872400     0.084511     0.017284     0.122714     0.008931     0.006848     0.132971
0.873600    -0.068826    -0.093266    -0.021484    -0.060921     0.070395     0.117096
0.874800     0.110753    -0.127717     0.101476    -0.004263     0.006961     0.015056
0.876000    -0.081390     0.003793     0.006855    -0.049418     0.039143     0.052516
0.877200     0.035350     0.090025    -0.015923     0.025149     0.086034    -0.016838
0.878400    -0.034383    -0.022156    -0.112937     0.069689     0.048201    -0.014799
0.879600    -0.042654    -0.008313    -0.126023    -0.004992     0.057280     0.031643
0.880800     0.037542    -0.072123    -0.007725    -0.003806    -0.071749     0.071861
0.882000    -0.113590    -0.000781     0.093256    -0.034624    -0.047934    -0.032223
0.883200     0.101794    -0.069924     0.004080     0.122586     0.024738    -0.044191
0.884400     0.004920    -0.027405     0.030707     0.118093     0.062805    -0.005065
0.885600     0.081975     0.023239     0.092058     0.020577    -0.100931     0.066245
0.886800    -0.036816    -0.078274    -0.056322    -0.070675    -0.075643    -0.020314
0.888000    -0.046192     0.022554     0.048999    -0.019349     0.042641    -0.073976
0.889200    -0.037328    -0.053274     0.034733    -0.033599    -0.023353     0.052554
0.890400    -0.026453     0.018114    -0.041233    -0.016436    -0.090804    -0.113712
0.891600    -0.043019    -0.058336     0.039804    -0.080274     0.121929    -0.046910
0.892800     0.131850    -0.095408    -0.029471     0.028789     0.081678     0.111460
0.894000     0.045433    -0.065584    -0.047976    -0.065526     0.064252     0.023645
0.895200     0.061662    -0.018268    -0.112966    -0.057103    -0.010052     0.052746
0.896400    -0.134967     0.039658     0.031674    -0.054865    -0.052176     0.047096
0.897600     0.016533    -0.004189     0.004238    -0.002868    -0.173110    -0.029956
0.898800     0.116509     0.023861     0.043853     0.114305    -0.057617     0.051441
0.900000     0.025620    -0.031000     0.014652    -0.094284     0.105760    -0.075520
0.901200     0.071678     0.157841    -0.069393     0.003546     0.082949    -0.059287
0.902400    -0.079129     0.051209     0.038118     0.022543    -0.017041    -0.065331
0.903600     0.022453     0.062274     0.010632    -0.032115    -0.070925    -0.039239
0.904800     0.036388     0.116021     0.012366    -0.065236    -0.002418    -0.016223
0.906000     0.044772    -0.046735    -0.012760    -0.040094     0.003370    -0.050720
0.907200     0.043471     0.013841    -0.001721     0.013547     0.038032     0.017588
0.908400    -0.050550    -0.008665     0.045243    -0.011789     0.037400    -0.010418
0.909600     0.035574    -0.069130    -0.003686     0.030197     0.010672    -0.038077
0.910800     0.029127     0.025166     0.052625    -0.080238     0.132900    -0.033819
0.912000     0.004227    -0.043380    -0.057235    -0.039794    -0.063396    -0.047837
0.913200    -0.006356     0.070621     0.022870     0.044607    -0.099732     0.028427
0.914400    -0.046552     0.000594     0.001603     0.041640    -0.010721     0.041402
0.915600     0.069836    -0.024638    -0.013393     0.070065    -0.016876     0.126899
0.916800     0.016805    -0.075665    -0.024238     0.031256     0.019534    -0.050225
0.918000     0.021343    -0.014598     0.036224     0.016672     0.017811    -0.059676
0.919200    -0.044580     0.094448     0.019145     0.010211    -0.070378    -0.086966
0.920400    -0.058738    -0.016007    -0.000416    -0.043244    -0.001151    -0.012544
0.921600     0.013658    -0.001298    -0.014368     0.004898    -0.025488     0.023704
0.922800     0.005496     0.090458     0.093399    -0.070824    -0.076326     0.053612
0.924000    -0.005760    -0.078249    -0.073784    -0.045166    -0.080372    -0.004424
0.925200    -0.025352     0.006920    -0.011107    -0.029652     0.046653     0.003536
0.926400    -0.126514    -0.018249    -0.046019     0.082416     0.037755     0.047143
0.927600    -0.006504     0.053242    -0.024020    -0.024271    -0.006703     0.018773
0.928800     0.036685    -0.037094     0.011381    -0.013618    -0.023609    -0.158901
0.930000    -0.010815    -0.007748    -0.006575    -0.060808     0.042679    -0.072253
0.931200     0.022251     0.063539     0.106821     0.114354    -0.037789    -0.023699
0.932400    -0.011941    -0.017316     0.004952    -0.028226    -0.002589     0.054684
0.933600    -0.022665     0.093388     0.036574     0.046004     0.027699     0.035699
0.934800    -0.011114    -0.076826    -0.045774     0.027347    -0.075713    -0.057772
0.936000    -0.051344     0.051891    -0.003202     0.021639     0.021009    -0.049807
0.937200     0.023614     0.024599    -0.078266    -0.042843    -0.024327    -0.040355
0.938400    -0.129353     0.078843    -0.031304    -0.047632    -0.008174     0.012356
0.939600     0.086666     0.052749    -0.067510    -0.060602     0.076559    -0.002984
0.940800     0.002825    -0.019975    -0.023127     0.081056     0.007220    -0.091308
0.942000     0.000140    -0.036406     0.019120     0.104838    -0.008372    -0.047544
0.943200    -0.055272    -0.029812    -0.100145     0.060580     0.032028    -0.081366
0.944400     0.011587     0.040441     0.071588     0.091776     0.067366     0.036723
0.945600    -0.024286    -0.057056     0.072419     0.031418     0.034369    -0.046847
0.946800    -0.016852    -0.036439    -0.052879     0.015718     0.005374     0.013520
0.948000     0.030748     0.011785    -0.046602     0.010897    -0.047842     0.025449
0.949200    -0.001627    -0.016578    -0.059197    -0.034449    -0.003943    -0.012186
0.950400     0.017682     0.036204    -0.037649    -0.106592     0.029942     0.074558
0.951600    -0.042515     0.038244     0.010776     0.080436    -0.104665    -0.049792
0.952800     0.073835     0.080023     0.037231    -0.017361     0.063547     0.070911
0.954000    -0.034562    -0.038477     0.009319     0.047871    -0.056610     0.026769
0.955200    -0.004521     0.016785    -0.016149     0.079477     0.024984     0.011166
0.956400    -0.012774     0.013568    -0.009358     0.002997    -0.036999     0.008945
0.957600    -0.068989    -0.009220     0.074793    -0.061965    -0.036885     0.069081
0.958800    -0.018647    -0.040594     0.040696    -0.038069     0.030948     0.023138
0.960000     0.000583     0.038449     0.007584     0.026318    -0.047921    -0.051137
0.961200    -0.013965    -0.078993     0.066211     0.077359    -0.013905     0.014728
0.962400     0.044427     0.010948    -0.048276    -0.051671     0.068605    -0.062227
0.963600    -0.017738    -0.027918    -0.027256     0.023343     0.032064     0.032773
0.964800    -0.017619     0.032240     0.045401    -0.054838     0.048204     0.015586
0.966000    -0.011990     0.000346     0.000787    -0.049300    -0.021509    -0.007596
0.967200    -0.018411    -0.013450    -0.010586     0.006488    -0.021814    -0.015330
0.968400     0.038277    -0.018445     0.018162     0.059817     0.088017    -0.020154
0.969600     0.035129    -0.092916    -0.013270    -0.008625    -0.035903     0.014191
0.970800    -0.027718     0.027970    -0.051403    -0.003380     0.019358    -0.049299
0.972000     0.038290    -0.035927     0.075796    -0.011938    -0.052232     0.043616
0.973200    -0.040496     0.000104     0.012744    -0.026857    -0.043109    -0.001916
0.974400     0.068293     0.057249     0.030552    -0.063159    -0.079359     0.005144
0.975600    -0.001540     0.041756     0.021915     0.041592     0.040738     0.054575
0.976800     0.008528     0.060464    -0.065142    -0.047011     0.012840    -0.015417
0.978000    -0.018236     0.023541    -0.038342     0.034269    -0.027422    -0.056043
0.979200    -0.024127    -0.069229    -0.078302     0.003678     0.084627    -0.093590
0.980400     0.000037    -0.048919    -0.016443    -0.010777    -0.062183    -0.069203
0.981600    -0.030616     0.001725    -0.134086    -0.010399    -0.031740     0.002273
0.982800    -0.032283    -0.026324    -0.055851     0.000615    -0.083515    -0.007405
0.984000     0.000045     0.006166     0.041710    -0.024465    -0.011288    -0.002350
0.985200    -0.053156    -0.043949    -0.024659     0.022331    -0.011396     0.054979
0.986400     0.092006    -0.029476    -0.012884     0.075413    -0.016156     0.077733
0.987600     0.023984     0.055458     0.058429     0.007057     0.050500     0.045350
0.988800     0.015212    -0.038701    -0.021951    -0.032658     0.012026     0.003989
0.990000     0.007749     0.043042     0.091796    -0.011165     0.083507    -0.000714
0.991200    -0.017349     0.060733     0.071324    -0.065466    -0.073188     0.025535
0.992400     0.069167     0.022009    -0.004989     0.058768     0.013784    -0.000053
0.993600    -0.023258     0.027750     0.028904     0.045870    -0.013446     0.027074
0.994800    -0.042710    -0.000763    -0.017549    -0.034445    -0.034844     0.029634
0.996000    -0.069172    -0.068791    -0.001901     0.000912    -0.029620     0.059033
0.997200    -0.011285     0.051492     0.031196    -0.004055     0.038047     0.048374
0.998400     0.058843    -0.075392    -0.010482     0.039376     0.011374    -0.024293
0.999600     0.006096    -0.079622    -0.034845    -0.008856    -0.047553    -0.104805
1.000800    -0.016377     0.016698    -0.025477     0.012139     0.041996     0.024352
1.002000    -0.008505     0.004892     0.062988     0.043313     0.010382     0.000013
1.003200     0.007063    -0.042537    -0.035607    -0.065858    -0.004919    -0.001979
1.004400     0.039430     0.067205     0.000486     0.075682    -0.034056    -0.034306
1.005600    -0.002874     0.047169    -0.019740     0.027139    -0.036527     0.027876
1.006800     0.018118     0.012329     0.040339     0.018396    -0.013069     0.007336
1.008000    -0.006471     0.008808     0.014741     0.034459     0.002085     0.035386
1.009200     0.007186     0.008263     0.079153    -0.027835    -0.023832    -0.030198
1.010400     0.003354    -0.049852     0.027673     0.094583    -0.033899     0.034574
1.011600     0.090105     0.008585    -0.060572     0.018479     0.061069     0.008966
1.012800     0.001619     0.025255    -0.055918    -0.068483     0.000799    -0.030384
1.014000     0.011916    -0.004678    -0.053105    -0.035961     0.024646     0.001035
1.015200     0.023289    -0.040869    -0.019220     0.008708    -0.058809     0.014938
1.016400    -0.026776     0.010536     0.017824    -0.022249     0.090875    -0.030582
1.017600    -0.029803    -0.025229     0.018631    -0.056001     0.010252     0.054532
1.018800    -0.013607    -0.027104     0.075101     0.007000     0.043713    -0.050101
1.020000     0.035750    -0.019650     0.073510    -0.030835     0.021293     0.000745
1.021200    -0.015680    -0.014652     0.014546     0.028836     0.016753     0.045151
1.022400    -0.077536     0.046310    -0.051203     0.005941     0.038345    -0.040834
1.023600    -0.004526     0.013532    -0.009223     0.035662    -0.016715     0.004847
1.024800     0.025339    -0.050099     0.076864    -0.036262    -0.047055     0.022120
1.026000    -0.007653    -0.019406     0.008558     0.022915     0.032898     0.031039
1.027200    -0.018053     0.018211    -0.063051    -0.017627     0.005187    -0.001562
1.028400    -0.019617     0.000260     0.000513     0.019851     0.005101     0.017483
1.029600    -0.011925     0.050141    -0.039430     0.021812     0.024018     0.011306
1.030800    -0.001330    -0.019634    -0.021544    -0.038853     0.015672     0.007007
1.032000    -0.039422    -0.026170    -0.066287    -0.009146     0.042830     0.039029
1.033200    -0.013709     0.033926    -0.057873     0.002032    -0.035078    -0.022674
1.034400     0.011067     0.033051    -0.046132    -0.000763    -0.036315     0.021153
1.035600     0.024386    -0.040355     0.018027    -0.051564    -0.012629     0.007475
1.036800    -0.031253    -0.071775     0.004163     0.053598    -0.007233     0.027015
1.038000    -0.019103    -0.039899    -0.053120    -0.007670     0.055519    -0.055818
1.039200     0.003312     0.063871    -0.052318    -0.050088    -0.009358    -0.034302
1.040400    -0.007433     0.026695    -0.015386     0.015919     0.051645    -0.002348
1.041600     0.001725     0.025381     0.045445    -0.040672    -0.015096    -0.036172
1.042800     0.004038     0.006360    -0.013731    -0.020512     0.074914     0.045833
1.044000     0.022257    -0.046964    -0.036412     0.001867    -0.048208     0.008316
1.045200     0.002699    -0.011568     0.015350     0.003087    -0.033597    -0.006035
1.046400     0.032397     0.047821    -0.005151     0.002072    -0.014819    -0.044941
1.047600    -0.027546     0.019104     0.080830     0.040057    -0.059575    -0.018229
1.048800    -0.046071     0.047494     0.004176     0.067256    -0.001228     0.047744
1.050000    -0.008781     0.040257     0.018207     0.009398    -0.030641    -0.001620
1.051200    -0.022807    -0.027613    -0.005661    -0.040399    -0.037726    -0.023267
1.052400    -0.006010    -0.004900     0.019915    -0.005633     0.034680     0.029438
1.053600    -0.015093    -0.042263     0.010079     0.078162     0.045847    -0.006696
1.054800    -0.013355    -0.029047    -0.022261    -0.034863    -0.019585     0.018350
1.056000     0.030938    -0.027547     0.036038     0.026778     0.037735     0.028635
1.057200     0.020184     0.010762     0.004892     0.013094     0.030201    -0.012743
1.058400     0.003974    -0.013442    -0.055031     0.013938    -0.050233     0.006213
1.059600     0.010612     0.012131    -0.011351    -0.054867     0.001987    -0.035494
1.060800    -0.036096    -0.029860     0.061326     0.040596    -0.044732    -0.009194
1.062000    -0.002844     0.060388     0.006393    -0.035464     0.025170     0.012520
1.063200    -0.023494    -0.007045    -0.014234     0.033488     0.070510    -0.018413
1.064400     0.050644    -0.006292    -0.011191    -0.013143     0.015785     0.019969
1.065600    -0.053438     0.008647    -0.029086     0.013195    -0.004412    -0.032764
1.066800     0.043059     0.010333    -0.009925    -0.032283    -0.005565    -0.046590
1.068000    -0.040439    -0.037903    -0.023354     0.019501     0.028904    -0.023797
1.069200     0.074554     0.005111    -0.003381     0.022214    -0.005111    -0.020325
1.070400     0.017566     0.011630    -0.006575     0.000992     0.004850    -0.009315
1.071600     0.006148     0.007444     0.023508     0.073579    -0.022037     0.031006
1.072800     0.036517    -0.002924     0.003563    -0.017549    -0.007978     0.047265
1.074000    -0.014365    -0.000096    -0.050733    -0.022312     0.021499     0.020963
1.075200    -0.037894    -0.031011    -0.021993    -0.058798    -0.002212    -0.029651
1.076400    -0.000401    -0.048071     0.037467     0.003399     0.038481    -0.016198
1.077600    -0.007212     0.026708    -0.001610    -0.031368    -0.013327     0.024450
1.078800    -0.049031     0.014259    -0.018225    -0.002549    -0.017254     0.006231
1.080000    -0.029477     0.038029    -0.019543     0.041829    -0.008517     0.069419
1.081200    -0.020317     0.002887    -0.022783    -0.036619    -0.001289     0.026328
1.082400     0.028325     0.000247     0.040052    -0.020566    -0.020094     0.011044
1.083600     0.008227    -0.026969    -0.051804    -0.008225    -0.049349    -0.017091
1.084800     0.010234    -0.014482     0.053559    -0.030739     0.010681     0.023184
1.086000     0.012745    -0.047658     0.032751     0.064644    -0.003546     0.070003
1.087200    -0.015789     0.002949    -0.005345    -0.040536     0.019236     0.027994
1.088400     0.029462     0.039777    -0.048329    -0.043336     0.038736    -0.003491
1.089600     0.001735     0.067468     0.023541    -0.009805    -0.007074    -0.021081
1.090800     0.031388     0.020968     0.032170    -0.020092     0.062810    -0.008607
1.092000     0.002647     0.002755    -0.017698     0.001993     0.017215    -0.037185
1.093200     0.007573    -0.004537    -0.011800    -0.008846    -0.029965    -0.059320
1.094400     0.011126     0.003775    -0.018955    -0.021100     0.069902     0.012963
1.095600    -0.028311    -0.021015     0.027809    -0.000160    -0.025629    -0.003158
1.096800    -0.017732     0.005565     0.009258    -0.042548     0.003902     0.010184
1.098000    -0.021391    -0.001685     0.019988     0.008308    -0.006674    -0.033794
1.099200    -0.010076     0.009545     0.075126    -0.024944     0.014519    -0.002791
1.100400     0.055862    -0.012905     0.021393     0.001696    -0.037837     0.005072
1.101600     0.031692    -0.002288     0.036036    -0.053294    -0.013133     0.025723
1.102800     0.038454     0.002539     0.022319     0.010712    -0.005654     0.011528
1.104000    -0.024865     0.014557    -0.018124     0.007854    -0.021228     0.055639
1.105200     0.018833    -0.008297    -0.055714     0.024260    -0.039584    -0.023388
1.106400     0.004086     0.026097     0.034675    -0.009388     0.032002     0.028954
1.107600    -0.025824    -0.032589    -0.024204     0.004334     0.048283    -0.027012
1.108800    -0.033251    -0.026821    -0.011003    -0.030560     0.045844    -0.002916
1.110000     0.015911    -0.031109    -0.045332     0.010595    -0.049107     0.002723
1.111200    -0.050385    -0.000457     0.017018     0.028362     0.040823    -0.011474
1.112400     0.013509    -0.016462    -0.014081     0.066212    -0.018447    -0.038974
1.113600     0.020664    -0.004309    -0.012216    -0.023601    -0.003061     0.020482
1.114800    -0.004874     0.019475     0.044979    -0.012737    -0.054108    -0.003162
1.116000     0.001255    -0.007369     0.031967    -0.026857     0.011552     0.034335
1.117200     0.013858     0.011704    -0.006426     0.057576     0.000966     0.031840
1.118400    -0.030390    -0.006123     0.015620     0.009291    -0.010936    -0.003801
1.119600     0.035599    -0.034488    -0.023578     0.021973    -0.032985    -0.022040
1.120800    -0.042361    -0.021519     0.016099     0.032105     0.018371    -0.025381
1.122000     0.013358    -0.016272     0.005259     0.042369    -0.024849    -0.002222
1.123200     0.077814     0.043513    -0.001031     0.023920    -0.005774     0.011082
1.124400     0.070044     0.011801    -0.010539     0.006517     0.041605    -0.020548
1.125600    -0.016941     0.056112    -0.003382    -0.002921    -0.059713    -0.001634
1.126800     0.005567    -0.009999     0.045039    -0.019738    -0.003585    -0.010934
1.128000     0.025661    -0.055315     0.029395     0.004958     0.008152    -0.026481
1.129200    -0.026520     0.000155    -0.017984    -0.033016     0.018883     0.005402
1.130400    -0.005978     0.019478     0.018134     0.009863     0.036376     0.012959
1.131600     0.024209     0.026958    -0.013217     0.011788    -0.032722     0.044261
1.132800     0.000413    -0.007471     0.002451     0.043684     0.015771     0.021763
1.134000    -0.002476     0.009798     0.012514    -0.053283    -0.001842    -0.044466
1.135200     0.050391    -0.010823     0.020283    -0.056960     0.016270    -0.022141
1.136400    -0.004607     0.020062     0.011104     0.017882    -0.036772    -0.001712
1.137600     0.002639    -0.002488    -0.039422    -0.004151     0.005113    -0.029469
1.138800    -0.023315     0.067032     0.009522    -0.021590     0.039300     0.003484
1.140000     0.024531     0.004773    -0.012886     0.039626     0.050275    -0.019954
1.141200     0.005900    -0.019762     0.013245     0.027663    -0.013853     0.040505
1.142400     0.062401    -0.003373     0.005961     0.035212     0.018747    -0.037503
1.143600    -0.006131     0.011729     0.030125    -0.043578     0.010601     0.007154
1.144800    -0.012435    -0.013836    -0.022569     0.054304    -0.034322    -0.012347
1.146000    -0.006342    -0.006693    -0.002869    -0.022762    -0.015411    -0.023537
1.147200     0.048374    -0.016442    -0.005707    -0.003031    -0.007982     0.028618
1.148400     0.012152     0.001576    -0.013512     0.016306     0.020503    -0.005358
1.149600    -0.039672    -0.032255     0.037106     0.019730    -0.009471    -0.022637
1.150800    -0.036254    -0.021826     0.036915     0.025746    -0.038216     0.007742
1.152000     0.004612    -0.028914    -0.021430     0.008988     0.028685     0.042969
1.153200     0.000719     0.026606    -0.016133     0.018578     0.007156    -0.022036
1.154400    -0.024310    -0.000250    -0.017818     0.023173     0.076899     0.043964
1.155600    -0.007741    -0.013673     0.016700    -0.039260     0.010899     0.008186
1.156800     0.044994    -0.004240    -0.035870     0.011180     0.043965     0.035029
1.158000    -0.011906     0.020131     0.009740     0.013396     0.013750    -0.031187
1.159200    -0.027371     0.016649     0.020626    -0.032837     0.025932     0.003936
1.160400     0.025088     0.010456     0.015958    -0.014350     0.015199     0.026201
1.161600    -0.035432     0.002828    -0.002929    -0.035456     0.021779     0.028052
1.162800     0.049801    -0.030984    -0.023717    -0.028829    -0.012779    -0.008572
1.164000    -0.028830     0.046728    -0.001219     0.019419    -0.015916     0.015774
1.165200    -0.019138    -0.029101    -0.020824     0.014439     0.004063     0.010327
1.166400     0.031482     0.011563    -0.035927     0.021599     0.009584    -0.013809
1.167600    -0.029337     0.011342     0.023675     0.030395    -0.021757    -0.038205
1.168800    -0.068015     0.006781     0.009918     0.021519    -0.026234     0.007446
1.170000     0.003447     0.018379    -0.029546     0.024198     0.014686     0.040902
1.171200    -0.029747    -0.024236     0.011499    -0.014660    -0.031718    -0.015942
1.172400     0.019172    -0.033977     0.008561    -0.006365    -0.019822    -0.032662
1.173600     0.038609     0.027660     0.021877     0.011926    -0.012253     0.000517
1.174800     0.031585     0.005218     0.041495     0.003805     0.040928    -0.012231
1.176000    -0.020334    -0.012258    -0.001847    -0.000251     0.017927     0.004157
1.177200     0.005856     0.023593     0.001575    -0.012639    -0.020253    -0.041898
1.178400    -0.031482     0.023048     0.009931    -0.052614    -0.016562    -0.006431
1.179600     0.006584     0.028421     0.045851     0.000299    -0.034929    -0.020806
1.180800     0.012452    -0.038681     0.007323    -0.014105    -0.001165     0.023201
1.182000     0.004510    -0.013794     0.016365    -0.003109    -0.007557    -0.009932
1.183200    -0.018997    -0.019359     0.040628     0.009408     0.003194    -0.027830
1.184400    -0.002111     0.033673     0.005384     0.013468    -0.052773     0.014462
1.185600    -0.012733    -0.004545     0.057147     0.026045     0.006245    -0.009311
1.186800     0.010353     0.013624    -0.004963     0.039666     0.008745     0.021306
1.188000     0.002482     0.030213     0.006985     0.018826     0.008564     0.034686
1.189200     0.023440     0.035099     0.022241    -0.002904     0.026806    -0.026613
1.190400    -0.007982     0.031086     0.020471    -0.003625     0.007882    -0.004833
1.191600    -0.014107    -0.012597     0.007308    -0.023607     0.009773     0.025189
1.192800    -0.009612     0.032566     0.004290    -0.016816     0.022495     0.003601
1.194000    -0.023188     0.003143     0.013247     0.029802     0.022007     0.028194
1.195200    -0.013200    -0.030452     0.017325    -0.021093     0.006640    -0.029872
1.196400     0.015847     0.012357     0.026090    -0.001992    -0.016529    -0.030259
1.197600     0.025507     0.016400    -0.024877     0.003943     0.017446     0.027154
1.198800    -0.007075     0.006856     0.019575     0.023915     0.028271     0.001672
1.200000    -0.004483    -0.030747    -0.000822     0.005179    -0.008422    -0.009129
1.201200    -0.011755    -0.014542    -0.003644     0.016766    -0.021804    -0.024933
1.202400    -0.011599    -0.000988    -0.020099    -0.032326    -0.008455     0.011268
1.203600     0.018335     0.026414    -0.032993    -0.002571     0.016582     0.011525
1.204800    -0.022498    -0.010665    -0.016644    -0.001453     0.009421     0.002813
1.206000    -0.008457    -0.008152    -0.009242    -0.037945    -0.066957    -0.011930
1.207200     0.006789     0.016588    -0.028155    -0.020454    -0.015397     0.028046
1.208400    -0.018260     0.022561    -0.019056     0.036125    -0.015467    -0.019295
1.209600     0.015443    -0.015384     0.017172     0.012226     0.010028    -0.025086
1.210800    -0.006579     0.001599    -0.024830    -0.007771    -0.000769     0.029054
1.212000    -0.008335     0.001118     0.012056    -0.042505     0.009222     0.006083
1.213200    -0.013867     0.021664    -0.030739     0.020851     0.010301     0.010555
1.214400    -0.047561    -0.019914    -0.023576    -0.009332     0.051296    -0.001441
1.215600    -0.016893    -0.019558     0.031656     0.004729    -0.068067     0.009806
1.216800    -0.010003    -0.005880    -0.017147    -0.009061    -0.004192     0.024364
1.218000    -0.006881     0.003936     0.020611    -0.023646     0.005736     0.022053
1.219200    -0.036776    -0.035657    -0.001333    -0.004273    -0.008875    -0.006806
1.220400     0.008382     0.007028    -0.020406    -0.008202    -0.022294     0.032391
1.221600     0.019354    -0.015542    -0.008372     0.004742    -0.002997     0.019677
1.222800     0.030788     0.024878     0.036273     0.006847    -0.018516     0.009133
1.224000    -0.005541    -0.004165     0.019114    -0.029129    -0.016181     0.045758
1.225200     0.006154     0.037897     0.011651    -0.010904     0.027689     0.000047
1.226400    -0.011516    -0.029583    -0.017332    -0.007528    -0.048533    -0.023111
1.227600    -0.016276    -0.007682     0.001505    -0.014970     0.012613    -0.000914
1.228800    -0.004260     0.011794     0.002235    -0.027628    -0.041798    -0.004005
1.230000     0.028830    -0.014337    -0.012895    -0.011474     0.006049    -0.004387
1.231200    -0.004324    -0.011879    -0.027540    -0.034781     0.034693     0.001948
1.232400     0.010105     0.002103     0.013457     0.018159    -0.028148     0.040426
1.233600     0.025065     0.020278    -0.004661     0.011810     0.011999    -0.021711
1.234800    -0.005750     0.016066     0.020725     0.011337     0.019661    -0.020120
1.236000    -0.009228    -0.054409     0.006332     0.002418     0.001431     0.024245
1.237200    -0.012315     0.007780     0.003801    -0.026695    -0.000540     0.010389
1.238400    -0.017135    -0.007728    -0.001000     0.004457    -0.015688     0.026458
1.239600    -0.030286    -0.007459    -0.023137    -0.014383    -0.015166    -0.003640
1.240800    -0.028009    -0.048668    -0.013271    -0.004835     0.000928    -0.019912
1.242000    -0.013264     0.010270     0.016050    -0.001194     0.007467     0.004511
1.243200     0.004673    -0.007859    -0.000484    -0.018449     0.007732     0.010330
1.244400    -0.001720     0.024238    -0.019869     0.063239     0.023604     0.005584
1.245600     0.003567     0.017214     0.034882     0.000813    -0.029642     0.022467
1.246800     0.009730    -0.024501    -0.013411    -0.027448    -0.007265     0.004521
1.248000    -0.007132    -0.007978    -0.006442     0.008168     0.019888    -0.014779
1.249200     0.007137     0.032922    -0.016815    -0.009060     0.005813     0.007227
1.250400    -0.004283     0.010364    -0.002600     0.001424    -0.003044     0.009749
1.251600    -0.014504    -0.006272     0.002559     0.026802    -0.016941     0.017136
1.252800     0.014524    -0.022773     0.001868     0.014161     0.013702     0.021315
1.254000     0.003924    -0.032682    -0.016633     0.010297    -0.004409     0.002236
1.255200     0.000184     0.011373     0.005946     0.036605     0.023147    -0.004268
1.256400     0.000102    -0.015517    -0.026150     0.017347    -0.009227    -0.003362
1.257600     0.002930     0.015980    -0.052317    -0.015059    -0.008127    -0.014130
1.258800     0.008224    -0.021881     0.029342    -0.010856     0.003343    -0.020175
1.260000     0.003100     0.025313    -0.000605     0.014816     0.021268    -0.037396
1.261200     0.029613    -0.003739    -0.001783    -0.000433     0.021568    -0.006889
1.262400    -0.027332    -0.035940    -0.004698     0.002296     0.002735    -0.035925
1.263600     0.021586     0.010248    -0.017690    -0.015516     0.012479     0.022798
1.264800     0.010386    -0.004328     0.022792     0.004797    -0.007529    -0.021574
1.266000     0.020126    -0.010029     0.023447    -0.014179     0.020488    -0.006157
1.267200    -0.034205    -0.017135    -0.001709    -0.014725    -0.008841     0.011019
1.268400     0.021376    -0.012531    -0.012785     0.000853    -0.005699     0.006215
1.269600    -0.016543     0.011111     0.007344     0.004916     0.010062    -0.006282
1.270800    -0.012526    -0.003504     0.021102    -0.018181     0.003698     0.006665
1.272000     0.013058    -0.010628     0.006375    -0.016496     0.014406     0.000004
1.273200     0.001256    -0.007354    -0.021171    -0.005630    -0.013197     0.003273
1.274400    -0.001773    -0.003007    -0.012401     0.023687    -0.031152     0.013425
1.275600    -0.016815     0.008301     0.018441    -0.015218     0.011192    -0.020669
1.276800     0.004788    -0.015013     0.005337     0.021642    -0.026797    -0.000691
1.278000    -0.011216    -0.009687    -0.008977    -0.008870    -0.025809    -0.003906
1.279200    -0.017397     0.015723    -0.008191    -0.026610     0.027163    -0.005617
1.280400     0.016118    -0.020538    -0.021686    -0.004375     0.006842     0.008892
1.281600     0.004333    -0.029561    -0.050694    -0.001449     0.007993    -0.008605
1.282800    -0.009884    -0.012971    -0.011208    -0.012361     0.007782     0.013426
1.284000    -0.028335    -0.010332     0.004548     0.012116     0.006643     0.012533
1.285200    -0.012196    -0.006909     0.014516     0.003697    -0.000121    -0.017831
1.286400    -0.008439     0.000470    -0.001127     0.010914     0.002417     0.017813
1.287600    -0.004572     0.001777    -0.001654    -0.016477     0.004128     0.019332
1.288800     0.000621    -0.016865    -0.000573    -0.014849    -0.008172     0.016330
1.290000     0.001699     0.004733     0.011710     0.010510     0.009115     0.016038
1.291200     0.016683    -0.004486     0.000353     0.011111     0.000853     0.002376
1.292400     0.013880     0.009765    -0.004610     0.002528     0.017631     0.015736
1.293600    -0.007642    -0.018515     0.000745     0.019477     0.010339    -0.008760
1.294800     0.025502     0.008264     0.014255    -0.006627    -0.001045    -0.019331
1.296000    -0.001137     0.010620    -0.003998     0.008993    -0.011528    -0.009728
1.297200    -0.008295    -0.011849     0.007815    -0.003155     0.002607     0.012884
1.298400     0.010614    -0.006055    -0.004581    -0.002614    -0.000333    -0.008946
1.299600     0.004105    -0.023989    -0.002254    -0.002401     0.009825     0.016118
1.300800    -0.006281     0.002064    -0.004792    -0.003052     0.008290     0.004119
1.302000    -0.012308    -0.015645    -0.015611    -0.003881     0.004888    -0.007048
1.303200     0.017022     0.006030     0.023276    -0.016699     0.001910     0.001660
1.304400     0.022353     0.004235     0.018157    -0.005736     0.002734    -0.000503
1.305600    -0.001069    -0.037471     0.004106     0.015451     0.010126     0.003751
1.306800    -0.008668     0.014934     0.002837    -0.001063    -0.012224     0.002916
1.308000    -0.005784    -0.023822    -0.003776     0.023607    -0.004274    -0.033097
1.309200    -0.000163     0.015429     0.004693     0.011499    -0.038699    -0.003969
1.310400    -0.005473    -0.015714    -0.009680     0.020236    -0.027494    -0.012061
1.311600    -0.020017     0.022295     0.007743     0.001335     0.013166    -0.013366
1.312800     0.022511     0.017249    -0.012850     0.017010     0.009203    -0.012078
1.314000     0.005650     0.011567    -0.004436     0.008232    -0.009564    -0.011182
1.315200     0.011691    -0.016629     0.002167     0.012909    -0.040053    -0.001435
1.316400     0.009034    -0.029747     0.000414     0.010048    -0.005302     0.005617
1.317600     0.006928     0.000662     0.002243    -0.007745    -0.002517    -0.014289
1.318800    -0.000320    -0.015551     0.003882     0.004972     0.016595    -0.007523
1.320000     0.004656     0.021138    -0.010959     0.013038    -0.002760    -0.021276
1.321200    -0.024691     0.010927     0.008050    -0.023176     0.008630     0.003594
1.322400     0.020768    -0.013480    -0.036017     0.026597     0.004935     0.014376
1.323600     0.008579    -0.003968     0.015460    -0.000384     0.007864    -0.003768
1.324800    -0.015490    -0.011594    -0.001053     0.021125     0.000177    -0.009705
1.326000     0.020269     0.006926     0.009197    -0.010944    -0.006734    -0.013145
1.327200    -0.001255    -0.003136     0.014437     0.006129    -0.022743     0.023499
1.328400     0.004244    -0.005597     0.007353    -0.022025     0.001974    -0.011530
1.329600     0.014460     0.019463     0.016274    -0.009827     0.013249    -0.009737
1.330800    -0.011884     0.006383    -0.013003     0.013178     0.017868    -0.019053
1.332000    -0.001900    -0.000216    -0.009046    -0.002544    -0.001010    -0.011442
1.333200     0.016118    -0.009031    -0.024797     0.011868    -0.034091     0.017231
1.334400     0.006481     0.010956    -0.000997     0.006685    -0.004466     0.003776
1.335600    -0.015116     0.009749     0.005393    -0.015845    -0.002194     0.003112
1.336800    -0.013974     0.001439     0.018203    -0.001677    -0.015516    -0.001715
1.338000    -0.004215    -0.023320     0.004090    -0.018975     0.003649    -0.000145
1.339200     0.014456    -0.004891     0.012554     0.026364    -0.004615    -0.004425
1.340400    -0.021959     0.003574     0.003824     0.002448     0.002226    -0.015323
1.341600     0.015535     0.005455     0.015622     0.000389     0.009198    -0.011462
1.342800     0.003147    -0.017187    -0.012105    -0.000216     0.005948    -0.004839
1.344000     0.014618     0.012110     0.015891    -0.007575    -0.014266     0.017759
1.345200     0.001202     0.011544    -0.018973    -0.011242     0.012239     0.006991
1.346400    -0.014155     0.008158    -0.011146    -0.018776     0.005870     0.012387
1.347600    -0.017297    -0.018365     0.000511     0.004868    -0.011194    -0.008398
1.348800     0.011389    -0.011947    -0.007191     0.013749    -0.002368    -0.009748
1.350000     0.017239    -0.017919     0.043693     0.002077     0.007213    -0.025514
1.351200     0.027119    -0.006496    -0.011125     0.011689     0.000766     0.002168
1.352400     0.004615     0.011087     0.002949     0.003230     0.017890    -0.010173
1.353600    -0.000880     0.003206    -0.020742    -0.014477    -0.005439    -0.024235
1.354800     0.001157    -0.001554    -0.005635    -0.003831    -0.015297     0.000859
1.356000     0.002869     0.009635     0.002132    -0.001225     0.009108    -0.001537
1.357200    -0.007649     0.023713     0.024699     0.007151    -0.017865     0.024095
1.358400     0.016392    -0.012937    -0.021874    -0.012693    -0.019455     0.009495
1.359600     0.001708     0.000188     0.021061     0.010879     0.002252    -0.029522
1.360800     0.003909    -0.004336    -0.010322    -0.019266     0.011757    -0.021124
1.362000     0.022711     0.016496    -0.009178    -0.015900    -0.011078     0.006155
1.363200     0.006398     0.002133    -0.025264     0.030795    -0.018210     0.015910
1.364400    -0.004788    -0.017066     0.000814     0.002902     0.008621    -0.009148
1.365600    -0.015721    -0.011448    -0.016997     0.009121    -0.001303     0.019192
1.366800    -0.004253    -0.008682     0.004018     0.015022     0.006689     0.011103
1.368000    -0.021009     0.012344    -0.015772    -0.025963     0.011034     0.029590
1.369200    -0.008481    -0.003647     0.007930    -0.020979    -0.008614    -0.000239
1.370400    -0.011498    -0.010870     0.021259    -0.009146     0.005288     0.014245
1.371600     0.008290     0.002777     0.004038     0.002313    -0.024193     0.009481
1.372800    -0.019181    -0.003166     0.012034     0.008938     0.006433    -0.009848
1.374000     0.011809     0.019442    -0.002949    -0.013470     0.011066     0.005644
1.375200     0.034246    -0.003711     0.005008     0.010113     0.015674     0.001466
1.376400    -0.006836    -0.001517     0.018645     0.009072     0.009988     0.016395
1.377600    -0.015018    -0.016947    -0.009586     0.008081    -0.004105    -0.009694
1.378800     0.007335    -0.021806     0.003072     0.006806     0.008646    -0.000337
1.380000    -0.002521     0.006703     0.014171     0.013140     0.023026     0.024127
1.381200    -0.018259    -0.014388    -0.010184     0.004614     0.002363     0.003291
1.382400     0.006836     0.017252    -0.004290    -0.000445    -0.019180    -0.002858
1.383600    -0.006277     0.010950     0.004632    -0.014903    -0.012236     0.010760
1.384800     0.005587     0.011203     0.015534    -0.011460     0.002968     0.007235
1.386000    -0.001633     0.002924    -0.017475    -0.012031    -0.017923     0.005660
1.387200    -0.011990    -0.003274     0.002709    -0.007240    -0.012718     0.005351
1.388400    -0.015710     0.022234    -0.003526     0.008577    -0.025908    -0.004980
1.389600    -0.012501     0.001385    -0.010206    -0.001917    -0.000540    -0.002403
1.390800    -0.001986     0.014625     0.009661    -0.013846     0.002640     0.006142
1.392000    -0.010311     0.003627     0.004176    -0.011044    -0.011848    -0.008984
1.393200    -0.012581    -0.001699    -0.000488     0.003980     0.015676    -0.005337
1.394400     0.017133     0.009390    -0.003546     0.008820     0.006315    -0.008039
1.395600    -0.011288     0.014598     0.009657    -0.010257    -0.009317     0.024517
1.396800    -0.004444    -0.006064    -0.001804    -0.013688     0.023600    -0.001295
1.398000     0.018529    -0.015265     0.006891     0.009421    -0.007718    -0.021039
1.399200    -0.013187     0.008272     0.001160     0.028939     0.023235     0.011431
1.400400    -0.003634    -0.019661    -0.015402     0.002797     0.011921    -0.002894
1.401600    -0.006403     0.002137     0.011307     0.004288    -0.004684     0.004360
1.402800     0.003898     0.013431     0.010197     0.007713    -0.003561    -0.006756
1.404000     0.012911     0.008181     0.008218    -0.021711    -0.016210     0.003345
1.405200    -0.011363     0.011947     0.001640    -0.006935     0.003227     0.007276
1.406400    -0.013860    -0.000142    -0.012950     0.003232    -0.015522    -0.002038
1.407600     0.006003    -0.010022    -0.022477     0.009374     0.012604     0.021195
1.408800     0.004838     0.011942    -0.003854    -0.008868    -0.000760     0.001252
1.410000     0.008016    -0.017750     0.008384     0.005575    -0.009482     0.006961
1.411200     0.002057    -0.009727     0.004119     0.009876    -0.002115     0.001131
1.412400     0.002033     0.010899     0.005157    -0.013196    -0.007301    -0.000166
1.413600    -0.008938    -0.003963    -0.023366     0.021188    -0.017454    -0.012308
1.414800    -0.008652    -0.005957    -0.016184     0.008484    -0.001860    -0.022727
1.416000    -0.000739    -0.000014     0.011906     0.008984     0.003651     0.002895
1.417200     0.001524     0.002486    -0.000291     0.016238     0.008576     0.004808
1.418400    -0.003057    -0.009617    -0.000497     0.003867    -0.005284    -0.006843
1.419600     0.008395     0.000593     0.000886    -0.006248     0.000603     0.002524
1.420800     0.005734     0.003597    -0.010862     0.006637     0.021531    -0.010287
1.422000    -0.000848     0.004233    -0.010659    -0.005767     0.002339    -0.007384
1.423200     0.004496    -0.002795     0.004583     0.000655     0.004494    -0.022859
1.424400     0.011998     0.013950     0.001177    -0.002474     0.017644    -0.000244
1.425600    -0.006000    -0.000396    -0.002701    -0.006300    -0.011298     0.018509
1.426800    -0.004229    -0.012166     0.008267    -0.016475     0.000807    -0.003653
1.428000    -0.017554     0.016827     0.016291     0.021116    -0.001722    -0.013411
1.429200    -0.014372     0.002069     0.000675    -0.002974     0.016250    -0.005476
1.430400    -0.008801     0.007446    -0.025737    -0.006124    -0.008817    -0.000134
1.431600    -0.010778     0.009353    -0.005676    -0.008135    -0.001502     0.010882
1.432800    -0.000375     0.005975     0.016158     0.005956    -0.011929    -0.001847
1.434000     0.009855    -0.017021     0.001927     0.001019    -0.000825    -0.009343
1.435200     0.010043    -0.013070    -0.008597     0.008720    -0.006336    -0.003131
1.436400    -0.006298     0.017888    -0.012341     0.005721    -0.002333    -0.011062
1.437600    -0.013629     0.017294     0.013127     0.006724     0.004535    -0.005822
1.438800     0.003822    -0.011224    -0.000844    -0.006146     0.012729     0.011929
1.440000     0.000782    -0.005859     0.001925    -0.000323     0.001659     0.021277
1.441200     0.005064    -0.009685     0.002863     0.003953    -0.008059    -0.018727
1.442400     0.003254     0.004619     0.018704     0.007186     0.006806     0.004188
1.443600     0.005649     0.001496     0.005917     0.017801    -0.002557     0.016161
1.444800    -0.002435     0.016959    -0.006052     0.015182     0.004809     0.030144
1.446000    -0.010568     0.006027    -0.003619     0.009123    -0.004015     0.011755
1.447200    -0.004476     0.004362    -0.001094     0.015323    -0.010767     0.010764
1.448400     0.015183    -0.006114    -0.003746     0.001112     0.009164     0.001332
1.449600    -0.005821     0.005298    -0.000198     0.004901     0.003044     0.012241
1.450800    -0.007680    -0.006681    -0.019758     0.008333     0.007657    -0.002964
1.452000     0.001601    -0.002089     0.002720    -0.003357    -0.003030     0.005007
1.453200    -0.003818    -0.001302     0.004982    -0.009683     0.003756     0.006159
1.454400     0.007682    -0.022203     0.004562    -0.013248    -0.001939    -0.011406
1.455600    -0.008028     0.006370    -0.002456     0.004860    -0.000642    -0.013610
1.456800     0.016125     0.015497    -0.005954    -0.006528    -0.002594    -0.021617
1.458000    -0.007855    -0.016938     0.005759    -0.004237     0.008767     0.000585
1.459200     0.003955    -0.016934    -0.013047    -0.006633    -0.004287    -0.001018
1.460400    -0.001418     0.002661     0.009153     0.002940     0.003728    -0.002672
1.461600    -0.000745    -0.008867    -0.002464    -0.000198    -0.002301    -0.009889
1.462800    -0.004510     0.010893     0.011853     0.017407     0.000904    -0.015939
1.464000    -0.005462    -0.000939    -0.007150     0.000023     0.001105    -0.004344
1.465200    -0.000540    -0.014362    -0.003878     0.015341     0.000375    -0.001854
1.466400    -0.005983    -0.001617    -0.014613    -0.003430    -0.012903    -0.000609
1.467600    -0.002343    -0.001043    -0.005093    -0.006081     0.009422    -0.003173
1.468800     0.015421     0.004682    -0.002927    -0.003616    -0.000229     0.006713
1.470000     0.003792     0.000702    -0.007594     0.011370     0.001375    -0.009126
1.471200     0.002509     0.006534     0.004856    -0.001216     0.019196     0.013899
1.472400    -0.008930    -0.008232    -0.011596    -0.004370    -0.004242     0.003881
1.473600    -0.008439     0.003269    -0.008390     0.005459    -0.006252     0.001585
1.474800     0.006880     0.002490     0.008213     0.007652    -0.010447    -0.010456
1.476000    -0.020436     0.005811     0.019305     0.001354     0.003694     0.001317
1.477200    -0.000100    -0.005134     0.006370    -0.013012    -0.011213     0.009990
1.478400     0.004883     0.004290     0.006737    -0.006936    -0.007022    -0.010613
1.479600    -0.004202    -0.004419    -0.023619     0.004464    -0.019438     0.000037
1.480800    -0.002483    -0.006934     0.004568    -0.009091     0.008925    -0.010291
1.482000    -0.009598     0.001022     0.001909    -0.003612     0.002079    -0.015833
1.483200     0.002706    -0.007148    -0.007966    -0.009714     0.015690    -0.007094
1.484400    -0.015305     0.003649     0.005951     0.018275    -0.008309    -0.003929
1.485600    -0.008148    -0.015834    -0.005661    -0.017268    -0.017078    -0.000057
1.486800    -0.003364    -0.009204    -0.003704     0.006389     0.002227    -0.004264
1.488000    -0.002778     0.001140    -0.007552     0.008750    -0.006501     0.005298
1.489200    -0.001561    -0.005150    -0.004920     0.003118    -0.003586    -0.008644
1.490400    -0.007891     0.013713     0.002882     0.001276     0.003470    -0.006862
1.491600     0.000086    -0.000456     0.009486    -0.004358     0.004297    -0.002972
1.492800     0.006234     0.011837     0.008485     0.004678    -0.004707    -0.022940
1.494000    -0.004906     0.002321     0.012043     0.009773    -0.010226     0.008255
1.495200     0.005651    -0.009079     0.003103     0.000373     0.006240     0.008833
1.496400    -0.005143     0.001990     0.009622    -0.002209    -0.003500    -0.005779
1.497600    -0.016314     0.010768     0.005339     0.010632     0.006825     0.011544
1.498800     0.004990     0.002615    -0.011219    -0.009768     0.001120     0.001182
1.500000     0.005385    -0.005989     0.002375    -0.004753    -0.016851     0.000256
1.501200     0.000999     0.009292     0.013362    -0.009377     0.008609     0.011117
1.502400     0.002190    -0.007717    -0.006187    -0.000856    -0.007507     0.003428
1.503600    -0.002286     0.006394    -0.002357    -0.007194     0.014987     0.003866
1.504800     0.004466    -0.004346    -0.020409     0.003630     0.006792     0.000992
1.506000    -0.000131    -0.007293     0.008404     0.009355    -0.000985     0.013411
1.507200     0.005229    -0.001470     0.001689    -0.000944    -0.021039     0.007661
1.508400    -0.010651     0.000406     0.012509    -0.001079    -0.010765     0.016652
1.509600    -0.002693     0.006728     0.000244     0.001129     0.001122    -0.001301
1.510800     0.003907    -0.007518    -0.004687    -0.009198     0.004809    -0.006951
1.512000    -0.002885    -0.004135     0.001058     0.005680     0.001737     0.000171
1.513200     0.012544    -0.005438     0.003803     0.019071     0.020876    -0.001971
1.514400     0.010267     0.001248     0.001891     0.010790    -0.008728    -0.002901
1.515600     0.001977    -0.017720    -0.012365    -0.006510     0.011550     0.000262
1.516800    -0.002134     0.005150    -0.001826     0.004061     0.001931    -0.012334
1.518000    -0.005144    -0.006435    -0.005156    -0.000995    -0.004193     0.003389
1.519200     0.002691    -0.013643    -0.002242    -0.007601    -0.022342    -0.004082
1.520400     0.001134     0.010486    -0.011819     0.003662     0.002284     0.000044
1.521600    -0.012902    -0.008244    -0.014897     0.003699    -0.003541    -0.013309
1.522800    -0.002925     0.002972    -0.007363    -0.010995    -0.003864    -0.005557
1.524000     0.004539    -0.011689    -0.007784     0.006529     0.010173    -0.000990
1.525200    -0.002759     0.008982    -0.002951     0.000665    -0.001685     0.010489
1.526400     0.002755    -0.003013    -0.005977     0.001649     0.002952    -0.005207
1.527600    -0.000697     0.018943    -0.011540     0.004877    -0.001245     0.009312
1.528800    -0.011746     0.004876     0.008187     0.008183    -0.000164    -0.005037
1.530000    -0.004145    -0.002612    -0.000628    -0.010562    -0.026776     0.010469
1.531200    -0.007080    -0.004728    -0.012263    -0.009661     0.000569     0.012930
1.532400    -0.004971     0.004107     0.008828    -0.003431    -0.003947     0.003977
1.533600     0.003721     0.000645     0.006981    -0.000153     0.001473     0.002873
1.534800     0.006132    -0.007859     0.006488     0.012296     0.003008    -0.004964
1.536000     0.001996    -0.006404    -0.007973    -0.006297     0.002271     0.001198
1.537200    -0.003446     0.002941    -0.000215    -0.005323     0.002526     0.009346
1.538400    -0.000766     0.011498     0.010550    -0.000705    -0.007412    -0.013567
1.539600    -0.002141     0.000091    -0.011254    -0.007300    -0.009920    -0.008459
1.540800     0.007299    -0.014189    -0.013603     0.007766    -0.000389     0.006096
1.542000     0.000112     0.001882     0.004921     0.008920     0.004325    -0.001167
1.543200     0.010382     0.012789     0.002983    -0.007605    -0.004786     0.002103
1.544400     0.006310     0.006899     0.010007     0.000957     0.007845     0.003365
1.545600    -0.000560    -0.003890    -0.011425    -0.006552    -0.003316    -0.001387
1.546800    -0.005725    -0.000411    -0.003173     0.002446     0.010336    -0.003421
1.548000     0.003986    -0.002761     0.000806    -0.002303     0.002226    -0.004548
1.549200    -0.007414     0.000514    -0.014404     0.000670     0.000075    -0.000041
1.550400     0.005103    -0.003569    -0.006001     0.006325    -0.004143     0.016463
1.551600     0.002536    -0.006365    -0.012761    -0.004141    -0.014354    -0.000655
1.552800    -0.010540    -0.002159     0.004542     0.007979     0.016750     0.002650
1.554000     0.001783    -0.001192     0.001115     0.000515     0.012532    -0.009661
1.555200     0.001284    -0.000808    -0.001665    -0.005848     0.011079     0.001029
1.556400     0.009329     0.002816     0.008158    -0.001055     0.000444     0.002993
1.557600     0.009505    -0.001690    -0.014350     0.001905     0.008378    -0.014696
1.558800    -0.005835     0.003721    -0.003164    -0.008690    -0.011363    -0.013180
1.560000    -0.004381    -0.001832     0.005517    -0.002028     0.003717    -0.003880
1.561200     0.009755     0.001266    -0.000323     0.003087    -0.005659    -0.012731
1.562400    -0.000623     0.000505     0.001647     0.003169    -0.006768     0.000097
1.563600     0.000152    -0.003059    -0.003118     0.000745     0.003703    -0.002670
1.564800     0.001767     0.004911    -0.002131    -0.013735    -0.008648    -0.011336
1.566000     0.001359     0.002050    -0.010568     0.013156    -0.001686    -0.005233
1.567200     0.004007     0.008154     0.002908     0.003986    -0.010264     0.008195
1.568400     0.009920    -0.006064     0.002073    -0.012739     0.009502     0.000400
1.569600    -0.005090     0.008693    -0.004343     0.003444    -0.001922    -0.003305
1.570800     0.008278     0.004536     0.003652    -0.008294     0.012034     0.005762
1.572000     0.000032     0.001272    -0.009228    -0.005570    -0.005566     0.006179
1.573200    -0.009010     0.011137     0.004482     0.003410     0.004755    -0.008269
1.574400     0.001174     0.002584    -0.007830     0.018998    -0.011223     0.001606
1.575600    -0.003255     0.004104    -0.013380    -0.001561    -0.003340    -0.010964
1.576800    -0.007276     0.005646    -0.005615    -0.000748     0.005625    -0.002819
1.578000    -0.005364     0.002932     0.007404    -0.004916     0.007100     0.005095
1.579200    -0.006682     0.005339     0.001525     0.000189    -0.001269     0.007220
1.580400    -0.000828    -0.006100    -0.004255    -0.003825    -0.003025    -0.004800
1.581600     0.005293     0.012862     0.002256     0.001383     0.019620     0.000184
1.582800     0.000903    -0.001316    -0.001757     0.009105     0.005548     0.005477
1.584000    -0.002468    -0.000484    -0.005613    -0.010173     0.005305    -0.006772
1.585200     0.009896     0.004887    -0.003761    -0.008115     0.001893     0.010450
1.586400     0.007644    -0.007719     0.001021    -0.003181    -0.002415    -0.009534
1.587600     0.003807     0.004277    -0.004758     0.003544    -0.004514     0.008775
1.588800    -0.008084     0.003270     0.001485    -0.003541    -0.001009     0.000745
1.590000     0.004731    -0.012922    -0.001182    -0.009566    -0.000130    -0.002174
1.591200    -0.002175     0.009124     0.003061    -0.006169    -0.002285     0.001429
1.592400     0.000517    -0.001356    -0.001823     0.001357     0.008062     0.004481
1.593600     0.009592     0.010701     0.003385     0.003427    -0.001520     0.000260
1.594800     0.001406     0.007483    -0.005579    -0.005868     0.001961     0.001786
1.596000    -0.005561    -0.008449     0.001411    -0.004506    -0.005945     0.015207
1.597200    -0.005302     0.007750     0.004980     0.000826    -0.003794    -0.001362
1.598400    -0.003786     0.007370    -0.001723    -0.001212     0.008919     0.001278
1.599600    -0.004800     0.004832    -0.012799    -0.003465    -0.006456     0.000174
1.600800     0.003608    -0.002379     0.000115    -0.000147     0.000451    -0.000814
1.602000     0.002881    -0.002512     0.010761    -0.004892     0.003755    -0.003093
1.603200    -0.005234    -0.007965    -0.008675    -0.004434     0.005567     0.002353
1.604400    -0.000182     0.003852    -0.002952    -0.010905    -0.001221     0.000108
1.605600    -0.000924    -0.001860    -0.005500     0.003926    -0.003900    -0.004438
1.606800    -0.009004    -0.002776    -0.001478    -0.000374    -0.004659     0.006334
1.608000     0.002785     0.007144    -0.001461     0.001674     0.006573    -0.002786
1.609200    -0.006440    -0.007793    -0.002512     0.007764     0.004249     0.004974
1.610400     0.005743    -0.001829    -0.005624    -0.004780    -0.003367    -0.014872
1.611600     0.000259    -0.002585     0.006284    -0.008646    -0.007470     0.006773
1.612800     0.001089     0.001161     0.006724     0.001319    -0.005828    -0.000293
1.614000    -0.005849     0.003473     0.002840    -0.001828    -0.000771    -0.004323
1.615200    -0.002130     0.008174     0.011493    -0.009002    -0.001885    -0.001534
1.616400    -0.007129    -0.004270     0.005070    -0.007327     0.010914     0.003797
1.617600    -0.001311    -0.002677    -0.006351     0.006367     0.002155     0.010442
1.618800     0.003376     0.008456    -0.000943    -0.001952     0.007022    -0.006972
1.620000    -0.008100     0.002511     0.001671     0.002272     0.005770    -0.008115
1.621200    -0.003488     0.001333     0.002603    -0.000717     0.000981    -0.004943
1.622400     0.003017    -0.005991    -0.004539     0.001443     0.002612    -0.003380
1.623600     0.001935     0.000530     0.003361     0.000945    -0.000080    -0.001676
1.624800     0.005527     0.001371     0.002395    -0.003711    -0.002079     0.002310
1.626000     0.003716    -0.002118    -0.001589     0.000252     0.004235     0.001692
1.627200    -0.005931     0.005773    -0.004246    -0.003565     0.003909    -0.003948
1.628400     0.002450     0.001455    -0.001077     0.000228     0.007949     0.009077
1.629600    -0.003097     0.000943     0.005323    -0.008167    -0.006700    -0.006822
1.630800     0.000357     0.000251     0.017992    -0.003792     0.001028     0.010168
1.632000     0.005274    -0.001194     0.000237     0.011161    -0.007812    -0.002327
1.633200     0.001698    -0.001424    -0.005105    -0.001815     0.007922     0.005556
1.634400    -0.009459    -0.005145    -0.002873    -0.003972    -0.001747     0.008907
1.635600     0.006123     0.003044     0.011476     0.008664    -0.001239    -0.009396
1.636800    -0.006556     0.000392     0.000498     0.000321     0.005643    -0.000244
1.638000     0.006169     0.000010
##PAGE=N=2
##DATA TABLE=(X++(I..I)), XYDATA
0.000000     0.000000    11.010251     7.398753    -4.795168   -11.229317    -1.330730
0.001200     8.043744     5.946611    -4.480703    -8.507432    -5.137718     6.406084
0.002400     8.261128    -0.814783    -7.539532    -5.739982     4.853270     8.041017
0.003600     1.312089    -8.003906    -6.011575     4.273130     9.900090     4.663082
0.004800    -6.315354    -8.238388    -0.506137     8.109656     4.279862    -3.253574
0.006000   -10.911675    -1.004907     8.911931     6.646392    -1.740408    -8.237541
0.007200    -3.201992     5.051459     8.628844    -0.302372    -9.513692    -7.747171
0.008400     2.991068     7.299377     1.870865    -6.070196    -6.405843     3.861748
0.009600     7.161124     4.158798    -7.025451    -6.095545    -1.494435     5.744910
0.010800     5.399059    -2.781195    -8.115084    -2.231356     6.038647     7.073404
0.012000    -1.796850    -5.153131    -3.555902     3.795641     7.695151     1.325928
0.013200    -6.640766    -4.594298     4.083563     8.320776     2.506754    -7.485081
0.014400    -7.029143     0.533299     6.564838     3.783907    -2.577946    -7.579306
0.015600     0.041063     6.801775     6.369331    -2.860893    -7.148321    -2.573853
0.016800     4.876591     5.091198    -0.144288    -5.670448    -3.192335     3.936742
0.018000     7.721622     1.141846    -6.375581    -5.660847     1.891026     6.839810
0.019200     2.248035    -3.437543    -5.447656     2.149562     5.321418     4.123273
0.020400    -2.259554    -7.588425    -3.838285     3.165634     5.556053    -1.746826
0.021600    -6.225870    -3.103058     3.249075     5.711029    -0.023350    -5.196366
0.022800    -4.205967     1.941748     8.611278     2.098901    -6.090876    -5.949883
0.024000     2.299313     5.829324     2.225406    -4.029931    -7.046326    -0.052451
0.025200     4.787665     5.251719    -1.686282    -6.467719    -2.207231     4.111941
0.026400     6.136972    -1.252800    -5.680345    -2.615209     3.805207     7.630872
0.027600     1.312024    -4.261756    -6.602648     1.284126     6.911657     1.458345
0.028800    -5.948167    -4.723405    -0.704434     6.577365     3.460129    -3.249012
0.030000    -6.072853    -0.973823     3.443300     4.451430    -1.053852    -5.616781
0.031200    -3.768110     2.650964     5.617812    -0.689195    -3.719804    -3.959766
0.032400     1.426595     4.555376     2.264754    -4.888440    -3.976368     1.811187
0.033600     5.619666     4.165765    -0.495939    -3.121765    -1.791881     5.013157
0.034800     4.828937    -2.640838    -4.214504    -1.951830     4.879956     6.678315
0.036000    -0.927049    -6.597541    -4.335206     2.458112     6.100707     0.966501
0.037200    -3.516587    -4.037489     0.648332     5.961091     1.850069    -3.837526
0.038400    -4.282599     0.859134     4.365342     3.577555    -2.288284    -4.555030
0.039600    -2.065027     4.212853     5.490559    -1.543455    -3.955811    -1.471445
0.040800     2.924231     4.541613     1.176508    -6.248972    -4.430326     1.224730
0.042000     4.528310     0.616514    -4.078656    -5.053031     1.345083     6.532691
0.043200     2.563551    -3.590586    -5.333071     0.102764     4.341712     3.623833
0.044400    -0.435311    -4.061279    -0.207179     3.930209     3.370348     0.120628
0.045600    -4.162360    -2.526507     1.474840     3.649207     1.589638    -4.101883
0.046800    -2.180489     1.762447     3.685921     1.234372    -2.626107    -3.191926
0.048000     1.861487     2.663969     1.965439    -2.561047    -5.387819    -0.417645
0.049200     2.071893     4.236707    -1.812190    -5.101339    -2.196373     3.921765
0.050400     4.114597    -0.675267    -3.516024    -1.451739     2.388355     3.292638
0.051600     0.117180    -3.163335    -3.155100    -0.108317     4.101374     0.347859
0.052800    -1.760531    -4.828555    -0.264136     3.863623     1.494004    -2.559394
0.054000    -3.495543    -1.806578     2.028894     4.005766     0.012819    -3.829950
0.055200    -2.502499     1.067243     3.601444     1.206656    -1.611873    -3.760248
0.056400     0.592900     3.694164     1.772808    -3.818234    -3.826134     1.870673
0.057600     2.867114     3.433908    -1.365781    -3.963533    -1.249526     2.778925
0.058800     2.523131    -0.997508    -4.176142    -0.777801     2.730494     3.904811
0.060000    -1.098539    -4.651596    -2.840371     2.486965     2.409852     0.721549
0.061200    -3.871797    -2.002354     0.958330     3.942168     1.933251    -1.994981
0.062400    -2.649245     0.100669     2.582548     2.387446    -0.837361    -1.549197
0.063600    -0.829654     2.006499     3.006710    -1.171178    -3.624006    -2.097162
0.064800     2.190332     4.032517    -0.846286    -4.081404    -3.900613     0.366112
0.066000     2.537063     0.016514    -2.834617    -3.526472    -0.357070     2.469070
0.067200     1.020755    -1.041359    -3.402214     0.161174     2.809264     1.531452
0.068400     0.796435    -2.747079    -1.082884     1.940027     3.696492     1.440213
0.069600    -3.883761    -2.513782     1.957771     2.714458     0.929450    -1.804640
0.070800    -2.365186     0.629669     2.964884     1.484726    -2.273066    -3.514507
0.072000    -0.235500     2.405629     2.338203    -0.968360    -2.618492    -1.583569
0.073200     1.666730     2.170009    -1.448824    -2.927434    -1.542380     2.781992
0.074400     3.858905     0.205347    -2.672108    -1.991040     2.371680     3.436541
0.075600     0.381315    -1.371813    -1.918801    -0.470057     2.984237     0.320464
0.076800    -1.002031    -1.734827    -0.557316     2.314582     2.443372    -0.272552
0.078000    -3.780908    -0.256766     1.699993     2.268718    -0.144070    -2.578428
0.079200    -0.474864     0.869760     2.501555     0.184128    -2.630367    -1.877257
0.080400     0.904923     2.988120     0.601314    -2.041972    -1.851297    -0.474625
0.081600     2.745697     0.543903    -2.023045    -1.873735     0.263929     3.383190
0.082800     2.056073    -0.607993    -1.471694    -0.435100     1.845435     2.850204
0.084000    -0.163771    -1.714352    -1.061389     0.914598     2.349723     1.107863
0.085200    -0.411796    -2.501272    -0.575665     3.174118     1.968123    -2.121742
0.086400    -2.858274     0.153079     2.423213     1.469920    -1.360334    -2.547217
0.087600    -0.748054     1.104857     0.721010    -0.713336    -3.141628    -0.846737
0.088800     0.883943     1.671323    -0.273846    -1.749454    -1.119410     0.406566
0.090000     3.153544     1.316205    -3.345470    -1.216993     0.221800     2.015935
0.091200     1.445631    -1.212264    -3.403233    -0.556321     1.478896     2.186779
0.092400    -1.257884    -2.887424     0.640597     1.455523     2.073089     0.823864
0.093600    -2.242513    -1.221498     0.427286     2.324340     0.490469    -1.831702
0.094800    -2.398206     0.493218     0.852194     0.936438    -2.027733    -0.655316
0.096000     0.170295     1.960274     1.073827    -1.941859    -3.032229    -0.500488
0.097200     0.866586     1.883727    -0.356110    -1.477347    -1.239655    -0.471362
0.098400     1.052633     0.666973    -1.517131    -0.308636     1.990571     1.742111
0.099600    -0.346857    -3.308553    -1.492734     1.070901     2.267391     1.768884
0.100800    -0.348183    -2.274779    -1.294926     2.266376     0.531371    -0.035712
0.102000    -0.943689    -0.625752     1.182326     1.655743     1.020162    -1.188485
0.103200    -1.424396     0.825962     1.542094     0.126654    -1.221028    -1.973409
0.104400     0.322869     0.924850     0.200702    -1.440060    -1.564607    -0.084585
0.105600     2.633911     1.280644    -0.624108    -2.625304     0.036923     1.338071
0.106800     2.245496     0.571731    -1.656896    -0.008787     1.873705     2.564609
0.108000    -0.444916    -1.651411    -0.680244    -0.289372     0.910955     0.427028
0.109200    -1.310503    -1.311684    -0.246237     2.160638     0.757013    -1.123635
0.110400    -1.698204     0.481155     1.864138     1.600412    -0.917920    -1.559000
0.111600    -0.279690     1.707136     0.775970    -1.033472    -2.170503    -1.273433
0.112800     1.178492     2.064633    -0.792993    -0.416445    -1.248102     0.481303
0.114000     1.819011     0.699664    -0.989153    -1.704417     0.340159     1.029980
0.115200     1.019959    -0.219708    -1.918994    -1.426989     0.831000     1.221638
0.116400    -0.878355    -1.874361    -0.502934     1.999102     1.552650     0.485387
0.117600    -1.504329    -0.549473    -0.714356     1.776198    -0.185251    -2.024212
0.118800    -1.425917    -1.184382     2.166096     1.170804    -1.279305    -1.490473
0.120000     0.538059     1.844782     0.445352    -1.018930    -1.506806    -0.403286
0.121200     1.155164     1.266563    -1.909690    -0.932056     0.461034     0.149981
0.122400     1.669005     0.059936    -1.967502    -1.572108     0.077189     1.388687
0.123600     0.356821    -1.761217    -1.606730    -0.118585     1.750531     1.212395
0.124800    -1.269229    -0.052387     1.661515     0.694607     1.497930     0.513005
0.126000    -0.606632    -0.219665     0.578910     1.340894     1.005273    -1.017440
0.127200    -0.786784     0.040932     1.591866    -0.570468    -2.291067    -0.896263
0.128400     1.036153     1.640007    -0.436600    -1.206468    -1.417129    -0.480015
0.129600     1.451472     1.258582     0.082479    -1.395871    -0.677165    -0.317882
0.130800     0.797160     0.100836    -0.584095    -0.937854     1.449384     0.622243
0.132000    -0.054994    -1.356968    -0.511118     0.332684     1.909089     0.705628
0.133200    -1.358305    -1.866375     0.669916     0.864734     1.261707    -1.058642
0.134400    -2.106578    -0.019337     2.077285     1.321280    -0.743632    -0.346492
0.135600    -0.463500     0.812854     1.247162     0.626219    -2.432674    -0.727628
0.136800     0.509434     0.771183     0.398281    -0.737293    -0.961033     0.816389
0.138000     1.198772     0.613616    -1.230536    -1.475119    -0.028461     1.584384
0.139200     0.639256    -1.387519    -1.529557    -0.313912     0.570607     1.832277
0.140400     0.211303    -1.182008    -0.291669     0.833006     0.897804     0.316635
0.141600    -0.966770    -0.582903    -0.590402     0.451298     0.487772    -0.488865
0.142800    -0.764472     0.550132     2.592486    -0.257029    -1.224658    -1.936968
0.144000    -0.676059     0.217178     0.206830    -0.199317    -1.535539    -0.585296
0.145200     0.078054     1.272222    -0.406883    -0.524507    -0.978976    -0.875226
0.146400     1.070158     0.021403    -1.810426    -1.144121     0.360955     0.015792
0.147600     0.118163    -0.138693    -2.215676    -0.849475     0.235978    -0.285465
0.148800     1.345660    -0.634470    -0.961178     0.114113     1.273604     0.677967
0.150000    -1.438878     0.261340     1.530137     0.619135     0.791441     0.722882
0.151200    -1.160405    -0.103338     0.852604     0.902160    -0.858408    -1.191896
0.152400    -0.605803     0.632526     0.725240     0.307474    -0.662106    -1.118436
0.153600     1.186665    -0.558485     0.075138    -1.129737    -0.993618     1.232766
0.154800     1.757937     0.535010    -1.959331    -0.362652    -0.016564     0.818198
0.156000    -0.394960    -0.133980    -1.699821     0.092540    -0.250234     0.464752
0.157200    -0.129338    -1.134598    -0.049302     0.837377     0.434564    -0.549053
0.158400     0.580629    -0.200284     1.040800     0.810575    -0.503968    -1.192867
0.159600    -1.124375     0.827716     1.002542     0.223761    -0.088304    -0.449499
0.160800    -0.164343     0.523384     0.726421    -0.633641    -0.699319    -0.518353
0.162000     0.761374     0.402075    -0.992243     0.153565    -1.097118     0.106995
0.163200     0.835755     0.346715    -1.070612     0.339328     1.292635     0.404743
0.164400     0.394892    -0.334670    -1.299950     0.254452     1.038046     0.200820
0.165600    -1.699172    -0.069657     0.544244     0.169400     0.658626     0.574036
0.166800     0.116571     0.146248     1.417007     0.249847     0.245613    -1.354494
0.168000    -0.904274     0.396508     0.459409     0.397718    -0.674563    -0.588241
0.169200    -0.093431     1.472721     0.071188    -1.428528    -0.625847     0.164940
0.170400     1.110033    -0.155194    -1.358971    -0.833467     0.662661     0.501304
0.171600     0.505844    -0.142782     0.111716    -0.375090     0.880519     0.326010
0.172800    -0.353745    -0.462049    -0.337357     0.090692     0.299269     0.676635
0.174000    -0.853467     0.295979     0.794416     0.496356     0.989843    -0.445705
0.175200    -0.477889     0.966697     0.623272     0.109756    -0.769273    -0.666541
0.176400     0.466782     0.689923    -0.150485     0.192819    -0.947447    -0.118136
0.177600    -0.511906     0.944119     0.476680    -1.229160    -0.241353     0.091954
0.178800     0.524794    -0.275878    -0.799212    -1.375447    -0.071320     0.711887
0.180000     0.027610    -1.007638     0.557219    -0.836586     0.841953    -0.213336
0.181200     0.640992     0.289253    -0.060084    -0.010290     0.614377     0.128331
0.182400    -0.035237    -1.039730     0.849911     0.883700    -0.595295     0.007810
0.183600     0.138376     0.017278     0.685118    -0.285085    -0.454871     0.550809
0.184800     0.188363     1.487720     0.805760    -0.112798    -0.984268    -0.151201
0.186000    -0.134716     0.345577    -0.145894    -1.538005    -0.061096     0.455669
0.187200     0.751625     0.286396    -0.212401    -1.256834    -0.354814     0.249309
0.188400     0.808591    -1.241394    -0.955146    -0.388936    -0.014016     0.689369
0.189600    -0.623347    -0.072699    -0.111027     0.613595     0.137206    -0.795004
0.190800     0.119630    -0.054492     0.089976     0.908081    -0.234275    -0.521363
0.192000    -0.389652     0.062368     0.724690    -0.331000    -0.040208     0.789135
0.193200     0.092519     0.698836    -0.597933    -0.313438     0.184857    -0.011300
0.194400     0.420644     0.233776    -0.656781    -0.395052     0.888640     0.730171
0.195600    -0.137038    -0.381570    -0.636429    -0.456454     0.284289     0.761765
0.196800     0.048334    -0.347351    -0.433711     1.476423    -0.011554     0.342178
0.198000     0.179434    -0.197562    -0.012870     0.579343    -0.109973    -0.314026
0.199200    -0.035776     0.793196     0.116267    -0.472721    -0.798318    -0.192597
0.200400    -0.229595     1.213406     0.653516    -1.191612    -0.058239    -1.070381
0.201600     0.096961    -0.327141    -0.043360    -0.488075    -0.711331    -0.215058
0.202800     0.477537    -0.132463    -0.264599    -1.538309     0.079469     0.730605
0.204000     0.295653    -0.379742    -0.274814    -0.121502    -0.276259     1.288270
0.205200     0.564310    -0.291738    -0.196222     0.561203     1.149083    -0.306426
0.206400     0.297247     0.272504    -0.251973     0.016275    -0.175056    -1.623004
0.207600     0.655796    -0.076298    -0.162385     0.299793    -0.016414     0.050304
0.208800    -0.526885     0.496902    -0.190437    -0.539303     0.551757    -0.735435
0.210000     0.490484     1.106691    -0.467402     0.207197     0.390462     0.530313
0.211200     0.628386    -0.580136    -0.397398     0.151056     0.173249    -0.188904
0.212400    -0.375011     0.087517    -1.008643     0.172757    -0.097939    -0.212891
0.213600    -0.516086     0.459783    -0.618246     0.441963     0.312455     0.668944
0.214800     0.043896     0.072355     0.904346     1.155943    -0.015281     0.376969
0.216000    -0.727732    -0.306531    -0.242106     0.487654    -0.742809    -0.004753
0.217200     0.076152    -0.235800     0.447620    -0.470483    -0.326784    -0.222157
0.218400     0.526035    -0.454858     0.081160    -0.305604    -0.240583     0.519770
0.219600     0.469132     0.182092    -0.684592    -0.104472     0.122317     0.636805
0.220800    -0.361737    -0.501126     0.155745     0.277126    -0.088916     0.083825
0.222000    -0.027123    -0.200035     0.071240     0.114916     0.312608    -0.302737
0.223200    -0.139051    -0.253246     0.598335    -0.044497    -0.955665     0.446839
0.224400    -0.509096    -0.141950    -0.621881    -0.508875    -0.380083    -0.390489
0.225600    -0.089234     0.798878     0.016472    -0.009678    -0.068285     0.320087
0.226800     0.709288    -0.348589    -0.851487    -1.044850    -0.028373     0.267801
0.228000     1.558711     0.136927     0.260566    -0.538119     0.551219    -0.553847
0.229200     0.312951    -0.293402    -0.221533     0.241441     0.776463    -0.401478
0.230400    -0.052839    -0.376697     0.012244    -0.019887     0.525808    -0.066695
0.231600    -0.662448     0.189450    -0.062322     0.150846     0.145636    -0.848730
0.232800    -0.010247    -0.275439     0.110818     0.788341    -0.575610     0.443049
0.234000     0.606994     0.226444    -0.376825    -0.371945     0.192265     0.338945
0.235200     1.096351     0.882429    -0.066298     0.556198     0.104699    -0.506805
0.236400    -0.080404    -0.515535     0.279484    -0.041456     0.400008     0.417674
0.237600     0.569082    -0.151095    -0.276208     0.054305    -0.067514    -0.115807
0.238800     0.169794    -0.342735    -0.214288     0.216088    -0.460343    -0.131419
0.240000     0.400402     0.180704     0.211321    -0.095827     0.270133    -0.128863
0.241200     0.260650     0.707934     0.432799    -0.303099    -0.389947    -0.455196
0.242400     0.137820     0.535298    -0.006433     0.100846    -0.312483    -0.358501
0.243600     0.065436    -0.211679    -0.033681    -0.449098    -0.229284     0.168584
0.244800     0.425969     0.414778    -0.121750    -0.240682    -0.317256     0.083694
0.246000    -0.163686    -0.426583     0.913726    -0.151494     0.534133     0.532322
0.247200    -0.120126    -0.720317     0.166317     0.126186     0.325555    -0.925266
0.248400     0.075781    -0.252462     0.312749    -0.068507    -0.004840    -0.706252
0.249600    -0.288968     0.136976    -0.504620    -0.414792     0.319602    -0.091999
0.250800     0.297921    -0.046713    -0.166753     0.541718     0.139157     0.064088
0.252000     0.265815     0.625873    -0.187987     0.337301     0.945010    -0.040819
0.253200    -0.683977    -0.495208    -0.064177    -0.135545     0.332079    -0.007825
0.254400    -0.502956     0.459646     0.362904    -0.230478     0.490171     0.063191
0.255600    -0.011962    -0.314226    -0.000493    -0.140598    -0.023371     0.090281
0.256800    -0.227437     0.257978     0.713095     0.315144    -0.111228     0.124058
0.258000     0.112953     0.255628    -0.324590    -0.632893    -0.124202     0.030131
0.259200    -0.107529     0.299854    -0.284087     0.282453     0.052742    -0.366643
0.260400     0.295073    -0.099784    -0.864759    -0.114314     0.124853     0.405332
0.261600    -0.347499     0.003690     0.244341     0.085372     0.123989     0.031502
0.262800    -0.215662     0.523595    -0.471096     0.517656    -0.297622     0.919774
0.264000    -0.168172    -0.147835     0.073413    -0.087439    -0.155043    -0.679047
0.265200    -0.870319    -0.190110     0.233559     0.724065    -0.026658     0.625930
0.266400    -0.191110    -0.263765     0.571267    -0.015767     0.517302    -0.217571
0.267600    -0.008115    -0.637193     0.650191    -0.404815     0.496206    -0.380279
0.268800    -0.595965     0.268923    -0.554487    -0.422163     0.076166     0.785275
0.270000     0.151717    -0.233379     0.144685    -0.312769     0.597312     0.288436
0.271200    -0.228421     0.352396    -0.120246    -0.465313    -0.658284     0.274510
0.272400    -0.100652    -0.996515    -0.588270     0.100925    -0.411768    -0.868769
0.273600     0.257690     0.115436     0.374042     0.061093    -0.418285     0.274058
0.274800    -0.451075     0.298321     0.247386    -0.590715     0.596952    -0.281942
0.276000    -0.003779    -0.836725     0.086261    -0.291338    -0.309301     1.067129
0.277200     0.923083     0.405454    -0.133840    -0.142567     0.045712     0.519958
0.278400    -0.195882    -0.100004    -0.419623     0.462139    -0.043253     0.799015
0.279600     0.282585    -0.387383     0.225184     0.494026    -0.017732    -0.309187
0.280800     0.146776    -0.548946    -0.026033    -0.148070     0.183647     0.083247
0.282000     0.117906    -0.604150     0.370967     0.104933     0.065585    -0.172152
0.283200    -0.205063    -0.082538     0.590460    -0.650920     0.324254     0.046469
0.284400    -0.009616     0.354803    -0.507414    -0.463681    -0.026986     0.082755
0.285600    -0.200466     0.187102    -0.070794    -0.215995     0.006872     0.125640
0.286800    -0.091853    -0.337161    -0.447061    -0.376944     0.550121    -0.236611
0.288000    -0.710677    -0.283775     0.050344     0.044092     0.746588     0.272941
0.289200     0.148152     0.097995     0.054581    -0.456461    -0.168402     0.534753
0.290400    -0.375698    -0.376911     0.100974     0.140868     0.035041    -0.394813
0.291600     0.009360     0.027505     0.331466    -0.510164    -0.181741     0.518895
0.292800     0.711002    -0.286339    -0.242423    -0.512341    -0.041058    -0.212091
0.294000     0.233354    -0.329113    -0.204393     0.519214     0.073459     0.424045
0.295200    -0.071823     0.256487    -0.184467     0.017404    -0.086952     0.046878
0.296400    -0.642056    -0.671185    -0.078548    -0.087541     0.305974    -0.241638
0.297600    -0.857136    -0.878103     0.437834    -0.033778     0.053530    -0.057447
0.298800     0.038010     0.262663     0.771560    -0.318696    -0.181462    -0.113597
0.300000    -0.221875     0.465228    -0.233259     0.347750    -0.319936    -0.076667
0.301200     0.302969     0.131259     0.069775     0.409856    -0.088929     0.309136
0.302400     0.758743     0.674220    -0.291371     0.136273    -0.147719     0.010948
0.303600    -0.126650     0.397666    -0.459780     0.266444     0.170145    -0.117657
0.304800    -0.032846     0.138869    -0.246142     0.057189    -0.333179     0.118436
0.306000    -0.396613    -0.081954     0.553917     0.553690     0.190526    -0.241702
0.307200     0.000757     0.030834    -0.114197    -0.295947     0.113029     0.089719
0.308400     0.935583     0.295968     0.910311    -0.710186     0.228946     0.257468
0.309600     0.097113    -0.189341     0.341711    -0.558936     0.289322     0.572284
0.310800     0.156739     0.168493     0.050057    -0.150691     0.214453     0.210304
0.312000    -0.077552    -0.765584    -0.129948    -0.538560     1.036774     0.403542
0.313200     0.461858    -0.100144    -0.475612    -0.083523    -0.584365    -0.491111
0.314400    -0.470999    -0.188332     0.277614     0.292158    -0.392335     0.264991
0.315600     0.200947    -0.008637    -0.216583     0.009443    -0.467856     0.397523
0.316800     0.031229     0.424246    -0.482739    -0.356098    -0.041504    -0.065650
0.318000     0.145537     0.319740    -0.375320    -0.097646    -0.315718    -0.058652
0.319200     0.317376     0.441548     0.516000     0.267100    -0.224488     0.407421
0.320400    -0.329852     0.202636    -0.094264     0.608157     0.882675    -0.372053
0.321600    -0.376039     0.257495     0.173530     0.484114     0.268124    -0.611640
0.322800     0.296945     0.151565     0.152384     1.001808    -0.177619    -0.098147
0.324000     0.003470    -0.220503     0.375960    -0.223684     0.246066     0.326123
0.325200     0.435920    -0.552217    -0.045871    -0.004242     0.450764     0.583597
0.326400     0.348828    -0.035585     0.118864     0.321188    -0.159022    -0.080605
0.327600     0.246523    -0.298490    -0.879111    -0.033839    -0.164947    -0.444922
0.328800     0.209084     0.368961    -0.069311    -0.043301     0.555422    -0.183240
0.330000     0.088317    -0.005176     0.066749     0.034221    -0.318854    -0.175660
0.331200     0.365359     0.181364     0.275051     0.020447     0.254450    -0.269256
0.332400    -0.168064     0.204598    -0.246326     0.144106     0.256929    -0.125860
0.333600    -0.031866    -0.375667    -0.661271    -0.116164     0.337158     0.170810
0.334800    -0.121569    -0.288852    -0.590518     0.544726     0.367631     0.207844
0.336000     0.489678     0.119471     0.045278     0.250728     0.489240    -0.026632
0.337200    -0.209738     0.174133    -0.260609     0.040477    -0.036821    -0.265918
0.338400    -0.585207    -0.213553     0.140848     0.004785     0.054801    -0.254630
0.339600    -0.065397     0.360468     0.131352     0.011437     0.022715     0.170884
0.340800    -0.457704    -0.305271    -0.028850    -0.343714     0.178040     0.317693
0.342000     0.092390    -0.047431    -0.132823    -0.060319    -0.001942     0.155582
0.343200     0.084152    -0.288396     0.178418    -0.196677     0.536757     0.159198
0.344400    -0.365192     0.402997     0.219646     0.411151    -0.393344    -0.097113
0.345600    -0.244111     0.331571     0.231967     0.196377    -0.392909    -0.509773
0.346800    -0.276218    -0.150612     0.521014     0.230984     0.078466     0.009421
0.348000     0.237621     0.474243    -0.364850     0.428961     0.016174    -0.053473
0.349200     0.623260     0.364272     0.000029    -0.303806    -0.240131    -0.240208
0.350400    -0.026238     0.121004    -0.527735     0.455515    -0.089628     0.251903
0.351600     0.134965    -0.254036    -0.311447     0.007105     0.572150     0.379557
0.352800     0.067892     0.258784     0.011209    -0.241762     0.372539    -0.575491
0.354000    -0.016046     0.127623    -0.068304    -0.289613    -0.024760    -0.410266
0.355200    -0.224152     0.227051     0.089608     0.249493    -0.734113     0.351220
0.356400     0.289841     0.110720    -0.483039    -0.129080     0.471274    -0.009726
0.357600     0.272757     0.071736     0.033575     0.139661     0.168398     0.102143
0.358800     0.329414     0.059816    -0.080515     0.042122    -0.048554     0.489519
0.360000    -0.088083    -0.050787    -0.543056     0.622974     0.400285     0.398135
0.361200    -0.219327    -0.412766    -0.333720     0.184737    -0.271645     0.879211
0.362400    -0.310211    -0.273149     0.088499     0.587672    -0.309271    -0.649856
0.363600    -0.828520    -0.183326     0.014209    -0.376414    -0.483387    -0.129629
0.364800    -0.285348    -0.109298     0.294348    -0.347242    -0.158896     0.323481
0.366000     0.204607    -0.089262     0.120104    -0.244109    -0.296390    -0.402061
0.367200    -0.250651     0.377601    -0.137142    -0.035923    -0.317203    -0.056917
0.368400    -0.381282    -0.265538     0.033584     0.322538     0.468289    -0.260358
0.369600    -0.185247    -0.431424    -0.467268     0.764174     0.410845    -0.840797
0.370800    -0.049341     0.324574     0.390997     0.488602    -0.016925    -0.223145
0.372000     0.310970     0.004311     0.027773    -0.285388    -0.290941    -0.081121
0.373200    -0.030864    -0.171942     0.270580    -0.057897     0.032390     0.202645
0.374400    -0.272612     0.187440    -0.258074    -0.670120    -0.157098     0.153740
0.375600    -0.313864    -0.683118     0.016292     0.024685     0.336853     0.410549
0.376800     0.001412    -0.443739    -0.122797     0.091556     0.379068    -0.336074
0.378000     0.277752    -0.262799     0.563023     0.350422    -0.095196     0.080430
0.379200    -0.260516     0.087671    -0.009217     0.099058     0.287647    -0.312054
0.380400    -0.429792     0.326755    -0.261955    -0.292937    -0.562226     0.310972
0.381600     0.136210     0.093826    -0.149383    -0.486590    -0.368186    -0.172812
0.382800     0.448764     0.019486    -0.034018    -0.113292     0.228202    -0.009043
0.384000     0.097907    -0.243980    -0.604062    -0.234782     0.315518     0.260373
0.385200    -0.081469    -0.094855    -0.183543     0.043824     0.019269     0.046597
0.386400    -0.423133     0.170090    -0.023106     0.358191     0.139614    -0.325475
0.387600     0.070561     0.124686     0.164941     0.203701     0.072422     0.319321
0.388800     0.043477     0.050842     0.112246    -0.200955    -0.146119     0.502548
0.390000     0.205900     0.110637     0.203617    -0.625293    -0.361002     0.524810
0.391200    -0.101506    -0.139129    -0.285907     0.267950     0.116571     0.193340
0.392400    -0.608099    -0.308958    -0.012519     0.076729     0.244570     0.291969
0.393600    -0.516940    -0.497030    -0.201096    -0.353513    -0.063973    -0.124511
0.394800     0.117837    -0.084090    -0.046107     0.259630    -0.637852    -0.114987
0.396000     0.285560    -0.016735    -0.066712    -0.412634    -0.076744     0.421192
0.397200     0.322320    -0.057234     0.093983    -0.357731    -0.201305     0.153786
0.398400     0.688947    -0.196606    -0.693137    -0.234357     0.469529    -0.508263
0.399600     0.356656     0.133655    -0.267397    -0.461661     0.132917     0.341561
0.400800     0.305214     0.547722    -0.256274     0.189479     0.575573     0.110069
0.402000     0.067075     0.486516    -0.218560     0.643537     0.259981     0.461900
0.403200    -0.138177     0.369201     0.034069     0.212457    -0.210725     0.048219
0.404400    -0.062048    -0.209369     0.358163    -0.054145    -0.340917    -0.041183
0.405600    -0.167251     0.254105    -0.148082    -0.422366     0.016119     0.179322
0.406800     0.749278     0.018459     0.151807    -0.212463    -0.045820    -0.144637
0.408000    -0.445152    -0.029228    -0.360070     0.230524    -0.009191    -0.340968
0.409200     0.062342    -0.255665    -0.189848    -0.136390    -0.256755     0.165791
0.410400    -0.433218     0.043761    -0.035510     0.335336    -0.374053     0.136092
0.411600     0.301317    -0.353281     0.294415    -0.245345    -0.129861    -0.119280
0.412800     0.092527     0.473321    -0.316594    -0.299345     0.195981    -0.008827
0.414000     0.211750     0.057695    -0.095843     0.311727     0.087381    -0.195015
0.415200     0.147772    -0.005392    -0.018989    -0.414072     0.075769    -0.126562
0.416400     0.250158     0.188880    -0.350637    -0.132345     0.003504    -0.168575
0.417600     0.238421    -0.307723    -0.530429     0.463823    -0.580063    -0.383361
0.418800     0.168368     0.045869    -0.223724    -0.052981    -0.046768    -0.379513
0.420000     0.338466    -0.428948     0.170567    -0.341566     0.142739     0.169666
0.421200    -0.241865    -0.086973     0.394920    -0.177794    -0.398623     0.154533
0.422400    -0.252144     0.401183    -0.153977    -0.533518     0.006901    -0.177224
0.423600    -0.272016     0.238361    -0.575701    -0.143625     0.231275    -0.103886
0.424800    -0.070259    -0.030961     0.004806    -0.051999    -0.151131     0.023377
0.426000    -0.144672     0.082135     0.099159     0.543929     0.323180    -0.051943
0.427200    -0.401487    -0.038039    -0.270262     0.299220    -0.083937    -0.209621
0.428400     0.423975     0.321957     0.223703     0.158491    -0.148034     0.198870
0.429600    -0.109109    -0.096808    -0.174696     0.192731    -0.067191    -0.119262
0.430800     0.595745     0.108705    -0.363299    -0.195481    -0.018293     0.179763
0.432000     0.179444    -0.271731     0.126091     0.148205     0.310420    -0.154275
0.433200     0.205692    -0.630100    -0.053593    -0.116098    -0.031300    -0.403718
0.434400    -0.007306    -0.078082     0.037930     0.503254    -0.051665    -0.321162
0.435600     0.136535    -0.205742     0.151328    -0.089318     0.128858    -0.231631
0.436800    -0.079927    -0.111140     0.407327    -0.565377    -0.010344     0.059177
0.438000    -0.098163    -0.156575    -0.144216    -0.020441     0.232429     0.606622
0.439200     0.448777     0.364217     0.250665    -0.154937     0.331458    -0.639677
0.440400     0.048122     0.131100    -0.083759    -0.019390    -0.125577     0.232535
0.441600    -0.087841    -0.423844     0.083744    -0.259440     0.015941    -0.148995
0.442800    -0.647909     0.354402     0.274899    -0.358351    -0.348724     0.021231
0.444000    -0.060146     0.453197     0.335023    -0.042568    -0.006251     0.047235
0.445200     0.084432    -0.197685     0.034422     0.104753     0.415648    -0.196275
0.446400     0.107407     0.522800    -0.128030     0.017237     0.168767    -0.014836
0.447600     0.315725     0.031765    -0.137631     0.237405    -0.215135     0.323403
0.448800    -0.210785     0.041567     0.075894    -0.035600     0.252069    -0.329122
0.450000    -0.026188    -0.092110     0.049132    -0.202268    -0.158037     0.235351
0.451200     0.044341     0.530178    -0.191931    -0.227867    -0.039392    -0.193938
0.452400    -0.349495     0.018525    -0.324591    -0.220408    -0.502585     0.066333
0.453600     0.026354    -0.067453    -0.021830    -0.147458    -0.253070     0.030559
0.454800     0.169863    -0.369612    -0.039859    -0.074118    -0.378088    -0.171865
0.456000     0.153073     0.126976     0.185584    -0.079869    -0.201250     0.018036
0.457200     0.527265    -0.058187    -0.001829    -0.036402     0.030643    -0.344731
0.458400    -0.006917     0.106520     0.139855     0.217334    -0.321269     0.338612
0.459600    -0.443476    -0.116447     0.114251    -0.078311    -0.022738    -0.053257
0.460800     0.286586    -0.009682    -0.019557    -0.242334    -0.043403     0.015302
0.462000     0.314566    -0.032531     0.066570     0.006616    -0.101948    -0.096232
0.463200     0.260541     0.182849    -0.065408     0.107213    -0.293074     0.639900
0.464400     0.206867    -0.056515    -0.325534    -0.085098     0.029491     0.089089
0.465600     0.199165    -0.156828     0.342114    -0.019598    -0.125028    -0.041156
0.466800     0.050105     0.153218    -0.136717     0.021899     0.024072    -0.256663
0.468000    -0.315523    -0.543943    -0.262446    -0.055376    -0.112330     0.100025
0.469200    -0.124784     0.371271     0.495775    -0.131196    -0.200175     0.031061
0.470400     0.147940     0.046091    -0.126544    -0.126035    -0.054540     0.455755
0.471600    -0.101302    -0.120175    -0.498566     0.149718     0.277530     0.160900
0.472800    -0.057909    -0.466010    -0.031520     0.191109     0.036493    -0.223594
0.474000    -0.029541     0.049111     0.425940    -0.012200     0.047037     0.053260
0.475200     0.019345    -0.099448    -0.197967     0.193356    -0.001860     0.060139
0.476400     0.274288    -0.069903    -0.179041    -0.053866    -0.052984     0.375778
0.477600     0.309805     0.263079    -0.095967     0.543123     0.110283     0.050242
0.478800     0.108034    -0.024043     0.055027    -0.029758    -0.115941     0.310569
0.480000     0.110154    -0.249093     0.250725    -0.069761    -0.108991     0.158521
0.481200     0.179171     0.030345    -0.065932     0.046062     0.208716    -0.069564
0.482400     0.133991    -0.042720     0.113702    -0.149787    -0.097435     0.305043
0.483600     0.236684     0.017649    -0.387823    -0.117313    -0.095583     0.265851
0.484800    -0.156419    -0.050216    -0.424902    -0.063366    -0.065566     0.086425
0.486000     0.017026     0.338834    -0.099692    -0.046800     0.291274    -0.118776
0.487200    -0.195663     0.002249    -0.387332     0.298456    -0.019055     0.250827
0.488400    -0.037246    -0.023072    -0.178148     0.181563     0.232105    -0.372062
0.489600     0.099769     0.114816     0.007035    -0.020385    -0.162429    -0.370513
0.490800     0.210554    -0.065381     0.197044     0.112831    -0.218517     0.110452
0.492000    -0.059441    -0.097064    -0.133253     0.510759    -0.034249     0.090468
0.493200     0.203304     0.136439    -0.007614     0.277350     0.113501    -0.204573
0.494400    -0.169858     0.193341     0.138210    -0.175260    -0.203277     0.261601
0.495600     0.082609    -0.008613    -0.114534     0.141264     0.053456    -0.218811
0.496800     0.180716     0.100371    -0.045475    -0.169730    -0.101480    -0.044721
0.498000    -0.140735    -0.104345    -0.203371    -0.193204     0.095614    -0.114212
0.499200     0.095013     0.045602    -0.276962     0.004345     0.357175     0.197490
0.500400    -0.314875     0.288353     0.053529    -0.093152    -0.409995     0.198341
0.501600     0.060696     0.112982     0.028359    -0.240714    -0.138435     0.147703
0.502800     0.060635    -0.272063    -0.478314     0.162632    -0.048600     0.420564
0.504000    -0.151759     0.352285    -0.596778     0.280143    -0.193202    -0.223690
0.505200     0.072404    -0.172730    -0.091999    -0.047102     0.060881    -0.205669
0.506400     0.055246    -0.180305     0.112363    -0.132868     0.152413     0.260474
0.507600     0.015547    -0.147728     0.071158    -0.054344     0.352506     0.216726
0.508800    -0.104846     0.470504     0.204929    -0.331930    -0.290961     0.010198
0.510000     0.203085     0.024417     0.035827     0.112820    -0.041768    -0.067802
0.511200    -0.381506     0.089517     0.089458    -0.163246     0.152714    -0.105775
0.512400     0.018032    -0.013763     0.171199    -0.340864     0.194293     0.093039
0.513600     0.020732     0.260899     0.389080    -0.088632    -0.266108    -0.488702
0.514800    -0.161890     0.055674    -0.016189     0.013327     0.263763    -0.101360
0.516000    -0.121850    -0.235233     0.260415     0.043284    -0.152993    -0.048826
0.517200    -0.066711    -0.062893    -0.253338    -0.127021    -0.239978    -0.191166
0.518400    -0.114306    -0.015190    -0.119355     0.271862    -0.260030     0.064805
0.519600     0.062539     0.197120    -0.175061    -0.012561    -0.246170     0.116772
0.520800    -0.210599     0.242628    -0.236294    -0.183658     0.191310    -0.073517
0.522000     0.122236    -0.048322    -0.223664    -0.206395     0.022134    -0.155919
0.523200    -0.249346     0.006065     0.240290    -0.148177    -0.201591    -0.163056
0.524400    -0.306020    -0.154135     0.016420     0.020175     0.071298     0.056975
0.525600    -0.113761     0.228092    -0.123238    -0.087955     0.112407     0.215227
0.526800     0.303262     0.213181     0.094091     0.439903    -0.056735     0.031310
0.528000    -0.095417     0.006013    -0.202514     0.076485     0.046515     0.021572
0.529200     0.127254    -0.095130    -0.051038     0.171530     0.185836     0.188629
0.530400    -0.247168     0.021239     0.534957     0.260319     0.146737     0.283737
0.531600    -0.022543    -0.301886     0.112269     0.051863     0.350073     0.027973
0.532800     0.001801     0.309875    -0.260960    -0.524078    -0.301944     0.048539
0.534000    -0.077423     0.176736     0.054247    -0.339402    -0.090719    -0.046663
0.535200     0.328472    -0.321829     0.197278     0.094166    -0.285698    -0.072326
0.536400    -0.045251     0.000554     0.313879     0.108965     0.008893     0.017075
0.537600    -0.205666    -0.072167    -0.333174     0.088924    -0.318794     0.327613
0.538800     0.007399     0.166774     0.095077    -0.090592     0.289333     0.085452
0.540000    -0.238889    -0.185125     0.155387     0.074094    -0.054173     0.045004
0.541200    -0.128700     0.144879     0.153834     0.002858     0.010366    -0.283171
0.542400     0.100399     0.035015    -0.009304     0.077733    -0.174675     0.144948
0.543600     0.060008     0.218686     0.347245    -0.020747     0.093717    -0.104318
0.544800    -0.105478     0.011766    -0.097718    -0.037071     0.330159    -0.078133
0.546000     0.118356    -0.449441    -0.116792     0.179518     0.085871    -0.003712
0.547200    -0.018870    -0.157775     0.217199    -0.125272     0.041969     0.181046
0.548400    -0.131589     0.113345    -0.121832    -0.056037     0.034157    -0.234663
0.549600     0.117347    -0.191834    -0.048280    -0.042638    -0.172542     0.241419
0.550800     0.005562     0.109783     0.092037    -0.056167    -0.156819    -0.076851
0.552000     0.271249    -0.151004    -0.006644    -0.064868     0.182553     0.088261
0.553200     0.009549     0.008503    -0.094174    -0.290187     0.010733    -0.146953
0.554400     0.168723    -0.022463    -0.281981     0.274283     0.134418    -0.149914
0.555600    -0.070896    -0.284654    -0.184194     0.226340     0.238176     0.111246
0.556800     0.287747    -0.051764     0.187703    -0.138074     0.124685     0.194994
0.558000    -0.021289     0.085412     0.356175    -0.003612    -0.143496    -0.064446
0.559200    -0.335108     0.273865     0.092173    -0.018668     0.191256    -0.118579
0.560400    -0.201555    -0.017781    -0.019386     0.050003     0.441886     0.012476
0.561600     0.037371    -0.122296    -0.115347     0.142297    -0.013547    -0.040206
0.562800    -0.191732     0.084183     0.188665     0.084216     0.110833    -0.090249
0.564000     0.072346    -0.006405    -0.071524     0.001730    -0.044305     0.164266
0.565200    -0.022862     0.170256    -0.155992     0.050421     0.000152     0.043739
0.566400    -0.203210    -0.155114     0.064600    -0.014430    -0.226879     0.276032
0.567600     0.091921     0.306960    -0.052103     0.137946    -0.033230     0.223589
0.568800    -0.076199    -0.173308    -0.023879     0.094629    -0.002837    -0.179450
0.570000    -0.287947     0.151485    -0.026738     0.045070     0.039618    -0.217005
0.571200     0.015685     0.122185    -0.204415    -0.203207     0.439512    -0.108540
0.572400    -0.120742     0.132000     0.069448    -0.113853    -0.008308     0.067121
0.573600     0.145340     0.082384     0.051462     0.254345    -0.050128     0.054258
0.574800     0.069423    -0.095569    -0.007861    -0.182768    -0.021913     0.036116
0.576000     0.041579     0.068710     0.041690    -0.079832     0.458505     0.135896
0.577200    -0.085535     0.062649    -0.191832    -0.178351    -0.187573    -0.046656
0.578400     0.160907     0.108589     0.056419     0.021292    -0.167342     0.041739
0.579600     0.060875     0.046358    -0.265014    -0.148818    -0.116984     0.087983
0.580800    -0.089717    -0.114010    -0.160593    -0.056233     0.140929    -0.027583
0.582000    -0.037896    -0.173814     0.089460    -0.003447    -0.190344     0.078192
0.583200     0.009008    -0.034754     0.195907    -0.133072    -0.181824    -0.034796
0.584400    -0.014985     0.046016     0.091560     0.079916    -0.022821    -0.240146
0.585600     0.170207    -0.150084    -0.153668    -0.087907    -0.044012    -0.328624
0.586800     0.021869    -0.123758    -0.141964    -0.002669    -0.173812    -0.150181
0.588000    -0.322105    -0.161260    -0.021396     0.138791    -0.073007     0.045760
0.589200     0.048418     0.104103    -0.340236     0.277713     0.139607     0.141727
0.590400    -0.158706     0.214430     0.098256    -0.179570    -0.146122     0.064617
0.591600    -0.190904    -0.048008    -0.059046    -0.169467    -0.237751    -0.023589
0.592800     0.209178     0.003381    -0.363441    -0.018830    -0.149159     0.101453
0.594000     0.258992     0.179922    -0.094726     0.105075     0.139261    -0.037089
0.595200     0.137854    -0.102005     0.073728     0.107860     0.024351     0.254703
0.596400    -0.184100    -0.000323     0.304858     0.112314     0.184911     0.046973
0.597600     0.129525    -0.109373     0.004200     0.003052    -0.127961    -0.100361
0.598800     0.088852     0.034890    -0.020042     0.160139    -0.092170     0.003920
0.600000     0.086379     0.125069     0.414536     0.159128     0.074091    -0.057296
0.601200     0.109874    -0.063600    -0.213413    -0.061845    -0.202404    -0.010026
0.602400     0.053067    -0.230027     0.080565    -0.025294    -0.088942    -0.214402
0.603600     0.136803     0.091458    -0.023851     0.101560    -0.195914     0.099622
0.604800     0.071495    -0.228600     0.155829     0.032552    -0.160106     0.015131
0.606000     0.036022     0.154834     0.066939    -0.015404     0.164692     0.041997
0.607200    -0.100833     0.069294     0.187491    -0.020028    -0.118373     0.006493
0.608400     0.115269    -0.045791     0.156854     0.103449     0.016812    -0.049285
0.609600    -0.067624    -0.139490    -0.146567    -0.004131     0.298557    -0.077221
0.610800    -0.002246    -0.119463     0.087424     0.055085     0.122032     0.092365
0.612000     0.090142     0.109984     0.079645     0.140618    -0.058651    -0.035792
0.613200     0.013355    -0.023245     0.054473     0.178828     0.065054    -0.049348
0.614400    -0.009316     0.065308    -0.200773     0.139694     0.029959     0.129334
0.615600     0.017346     0.211296     0.256811    -0.090649     0.240397    -0.115605
0.616800    -0.056448     0.079799    -0.083043     0.149740    -0.101425     0.026872
0.618000    -0.144954    -0.042367     0.096657     0.091485     0.089164     0.000284
0.619200     0.130314     0.024537     0.043593    -0.266118    -0.060731     0.168076
0.620400     0.120969    -0.122046    -0.004010    -0.157449     0.262722     0.071933
0.621600    -0.100570    -0.048296     0.043890    -0.000875     0.073972    -0.068891
0.622800     0.032362     0.014517     0.142194    -0.001215    -0.111471    -0.226392
0.624000    -0.044994     0.066338     0.347857     0.093920    -0.051832    -0.044041
0.625200     0.036534     0.078632    -0.051828    -0.164416     0.038851     0.004040
0.626400    -0.090681     0.015904     0.129069     0.023596    -0.156905     0.080926
0.627600     0.080582    -0.016639     0.052760     0.087154    -0.028327     0.303613
0.628800    -0.035459    -0.035007     0.185536    -0.008761     0.132283     0.096061
0.630000    -0.037743    -0.037128     0.308548     0.080048    -0.115565     0.211773
0.631200     0.099453    -0.256195     0.201533    -0.195113    -0.246227     0.012032
0.632400     0.042959     0.105169    -0.023772    -0.012824    -0.033357    -0.054087
0.633600    -0.019711     0.106508    -0.134667     0.194642     0.059164     0.002957
0.634800    -0.028089    -0.007724     0.062004    -0.016952    -0.089795     0.076728
0.636000     0.062159    -0.108186    -0.240896     0.152990     0.028870     0.129026
0.637200     0.115410     0.049198     0.065370     0.044028    -0.146835    -0.007377
0.638400    -0.108585     0.251419     0.053513     0.126190     0.071672     0.050583
0.639600    -0.040042     0.188875     0.184085    -0.032645     0.192399     0.002340
0.640800    -0.120842     0.003510     0.253548    -0.177119    -0.010298     0.267131
0.642000     0.035111    -0.312092     0.127189    -0.059371     0.136651     0.123698
0.643200     0.065157    -0.112405    -0.019102     0.035019     0.148932    -0.094932
0.644400     0.022435    -0.007654    -0.174209     0.224563     0.027620     0.050137
0.645600    -0.161591    -0.054031     0.309925     0.242362     0.111062    -0.162500
0.646800     0.018243     0.035911    -0.000040     0.211719    -0.102762    -0.001423
0.648000    -0.233162     0.179065     0.033419     0.030585    -0.214710    -0.090011
0.649200     0.207612     0.142022     0.256870     0.123824     0.057228    -0.230856
0.650400    -0.146317    -0.019398    -0.045294    -0.058238    -0.053795    -0.129533
0.651600     0.158070    -0.037464     0.049521    -0.083619     0.206166     0.138579
0.652800    -0.055080    -0.118856     0.094289     0.035954    -0.138545    -0.144340
0.654000    -0.041050    -0.145606     0.158041     0.051982    -0.213361    -0.119685
0.655200     0.081370    -0.120669    -0.056308     0.042321    -0.039926    -0.177356
0.656400    -0.224471     0.006887    -0.189008     0.205480     0.025608     0.008532
0.657600     0.012098    -0.143587     0.140916    -0.003731    -0.113763     0.004104
0.658800    -0.041785     0.005599    -0.006001     0.164811     0.105907    -0.017373
0.660000     0.168789    -0.060979    -0.073018    -0.066799     0.027052     0.023400
0.661200    -0.025564    -0.013519     0.069165     0.232497     0.080911     0.052605
0.662400     0.014849     0.013356     0.117784     0.064566    -0.164175    -0.167880
0.663600     0.255750    -0.001739     0.147784    -0.026638    -0.022220    -0.220039
0.664800     0.092625    -0.025929     0.010849     0.134355     0.057815     0.079579
0.666000    -0.183749    -0.096692    -0.000125    -0.212664     0.122085     0.219764
0.667200     0.060744     0.067069    -0.054641     0.137038    -0.081338     0.159596
0.668400    -0.169731    -0.074918     0.036334    -0.005232    -0.093185     0.075268
0.669600    -0.029363    -0.032014     0.152640    -0.123455    -0.027306     0.072127
0.670800    -0.003597    -0.079822     0.066698     0.079637    -0.044307    -0.038418
0.672000    -0.019542     0.117950     0.031983    -0.144605    -0.019977     0.093587
0.673200     0.159014    -0.017695     0.079257    -0.012678    -0.013812     0.097251
0.674400    -0.011392    -0.124726    -0.131128     0.034290    -0.032148     0.124915
0.675600    -0.075324     0.011436     0.212895    -0.195375     0.054537    -0.029274
0.676800     0.060481    -0.080595    -0.121997    -0.160261     0.046611     0.200520
0.678000    -0.061605    -0.088119    -0.004663     0.023896     0.174479    -0.050219
0.679200    -0.014572    -0.008872     0.112355     0.070590     0.111494     0.041252
0.680400     0.093560     0.180178    -0.007266    -0.003837    -0.086197     0.090115
0.681600     0.056014     0.172257    -0.137042     0.117891     0.042620    -0.048178
0.682800     0.263332     0.132484    -0.018749    -0.093499    -0.076538     0.089113
0.684000     0.071802    -0.055989    -0.040328     0.100688     0.132424     0.021458
0.685200    -0.093553    -0.046526     0.055245    -0.108297     0.021100    -0.099848
0.686400     0.065522     0.057037    -0.138898    -0.148951     0.081818    -0.141670
0.687600     0.096921     0.150087     0.154507     0.181186    -0.226323    -0.014056
0.688800     0.083497    -0.118889    -0.148579     0.082927     0.017552     0.183333
0.690000    -0.039932    -0.190593     0.092322    -0.111234    -0.000651    -0.189715
0.691200     0.134656    -0.093845    -0.127598     0.194938    -0.143458    -0.083576
0.692400    -0.039460     0.078535    -0.056843     0.065502     0.132418    -0.209845
0.693600     0.065945    -0.077470     0.068292     0.098929    -0.024668     0.053592
0.694800    -0.071444     0.086256    -0.073214    -0.048293     0.128827     0.065964
0.696000     0.042947    -0.029423     0.027855     0.082957    -0.134357    -0.023876
0.697200    -0.074711    -0.045039    -0.031169    -0.126119    -0.095824     0.179620
0.698400     0.083912    -0.051954    -0.124722    -0.067571     0.163925    -0.064066
0.699600    -0.012335    -0.095340    -0.051537    -0.144354     0.053865    -0.042242
0.700800    -0.190767    -0.066950     0.053664     0.039641     0.036992    -0.021060
0.702000    -0.060492    -0.066775     0.014086     0.051062    -0.011025     0.095935
0.703200    -0.090046    -0.022718     0.026289     0.149676     0.186044     0.013657
0.704400     0.016699     0.159169    -0.075156     0.044087    -0.012622    -0.036608
0.705600    -0.123143    -0.130447    -0.076254    -0.099705     0.079570     0.220966
0.706800    -0.055539    -0.013243     0.152867    -0.151415     0.163132     0.107601
0.708000     0.164235    -0.045645     0.011728    -0.061128    -0.024883     0.079808
0.709200     0.047203     0.055452    -0.095277     0.066415    -0.005169     0.002857
0.710400    -0.050150     0.050567    -0.057278     0.194552    -0.074236     0.088535
0.711600     0.050067    -0.104591    -0.023266     0.028705     0.042167    -0.005265
0.712800     0.095528     0.081612     0.138460    -0.016425     0.092665    -0.272119
0.714000     0.031419     0.043849     0.067252    -0.113090     0.045132     0.090429
0.715200    -0.008054     0.105508     0.011773    -0.049083    -0.108809     0.000894
0.716400    -0.107186    -0.044486     0.056839    -0.016377    -0.015578    -0.055313
0.717600    -0.116688    -0.135435     0.006935     0.158440    -0.027898    -0.058485
0.718800    -0.054874     0.078549     0.005387    -0.057283    -0.007236     0.000166
0.720000     0.011308     0.022676     0.074233     0.158007    -0.196203    -0.026126
0.721200     0.079482     0.009767     0.045141     0.070634     0.079251    -0.018832
0.722400     0.088020    -0.002748     0.043712     0.027119    -0.062337    -0.137574
0.723600    -0.091116    -0.017563    -0.056637    -0.147269     0.009046    -0.097666
0.724800     0.089820    -0.116139     0.066903     0.026537     0.127521     0.192513
0.726000     0.140767    -0.054818     0.002797     0.055484     0.060178    -0.253730
0.727200    -0.045463     0.106618     0.102607    -0.081165    -0.175549     0.068478
0.728400    -0.012232    -0.118258    -0.000545     0.005709    -0.045271    -0.092677
0.729600     0.149944     0.010924     0.020453     0.134435    -0.075254    -0.045635
0.730800     0.074393     0.062689     0.131189    -0.077218     0.230852    -0.025606
0.732000    -0.067096    -0.066561    -0.125728    -0.018476     0.035788     0.027590
0.733200    -0.081995    -0.030769    -0.033813    -0.056954     0.146431     0.020315
0.734400     0.042962    -0.026108     0.071786    -0.006763     0.189659    -0.001140
0.735600    -0.074836    -0.046899     0.005308     0.105721     0.067360     0.026548
0.736800    -0.077893     0.084291    -0.018222    -0.037502    -0.067866     0.072725
0.738000    -0.038672    -0.091948     0.089553    -0.086864    -0.025335    -0.001127
0.739200    -0.112785     0.116272    -0.155882     0.127936     0.187506     0.145209
0.740400     0.021018     0.008814    -0.057239     0.172783    -0.000837     0.120081
0.741600     0.039191    -0.000914    -0.059530    -0.115759     0.182370    -0.206067
0.742800     0.001929    -0.053289     0.005759     0.121844    -0.006585     0.080836
0.744000    -0.030274    -0.050386     0.040479    -0.090129     0.053228    -0.001578
0.745200    -0.164658     0.078355     0.066892     0.020146    -0.051118    -0.069306
0.746400     0.053507    -0.069585    -0.119746    -0.064235     0.021682    -0.031517
0.747600    -0.043806    -0.008044    -0.152405    -0.097778     0.029277    -0.015229
0.748800     0.018111    -0.064499     0.084796     0.182105    -0.014554    -0.106228
0.750000     0.267286     0.040410     0.095513     0.011822     0.195459     0.022182
0.751200     0.110209     0.098214     0.016188     0.143358     0.076984    -0.064287
0.752400     0.072936     0.161487     0.164926     0.077858    -0.031335     0.043053
0.753600    -0.008770    -0.008129     0.153637     0.047321    -0.038450    -0.005287
0.754800     0.059208     0.026792     0.268279    -0.002973     0.018138     0.058623
0.756000    -0.024513     0.040919    -0.147924    -0.049007    -0.019573    -0.010726
0.757200     0.028784    -0.152247     0.052166     0.139895     0.018583    -0.021416
0.758400     0.111751     0.123790    -0.092833    -0.008429    -0.122719    -0.020812
0.759600     0.064722     0.080449    -0.022407    -0.032801     0.112022    -0.129559
0.760800     0.078640     0.109331     0.031617    -0.129975    -0.019024    -0.086153
0.762000    -0.003905    -0.262060     0.046337     0.072366     0.042683    -0.016257
0.763200     0.020155    -0.119349     0.058119    -0.084608    -0.010565    -0.052655
0.764400     0.103351    -0.108299    -0.140400     0.038845    -0.048912    -0.066216
0.765600     0.096672    -0.056874     0.027926     0.110613     0.116329     0.037868
0.766800    -0.050149    -0.159402     0.094867     0.043945    -0.010652     0.033613
0.768000     0.027582     0.001674     0.121146     0.014239    -0.032237    -0.205807
0.769200    -0.086567     0.034328    -0.022517     0.081798     0.014256     0.023230
0.770400     0.099136    -0.094917    -0.132680    -0.017609     0.059143    -0.092366
0.771600    -0.037162    -0.094125     0.050444    -0.072462    -0.045398     0.108111
0.772800    -0.035153    -0.059841     0.010749     0.146421     0.085104    -0.053571
0.774000    -0.079022    -0.010538    -0.041470     0.050383    -0.148363    -0.036277
0.775200     0.149272    -0.073872    -0.016394     0.029912    -0.053621    -0.106536
0.776400     0.050770    -0.035999     0.003703     0.099017     0.021307    -0.086729
0.777600     0.053143     0.122607     0.137455     0.003504    -0.109624     0.000666
0.778800     0.073597     0.038291     0.151159     0.061726     0.006105     0.176409
0.780000    -0.052356     0.059148    -0.094554     0.114223     0.017565    -0.104434
0.781200    -0.019287     0.174469     0.057387     0.057213    -0.006436     0.070718
0.782400    -0.027037    -0.002283     0.145160    -0.013609    -0.104236    -0.001426
0.783600     0.016140    -0.088053    -0.089131    -0.038230     0.028698    -0.008312
0.784800     0.067950     0.087374     0.033080    -0.032033    -0.154048    -0.091050
0.786000    -0.115975    -0.047682    -0.129708     0.037447    -0.073028     0.155372
0.787200     0.114291    -0.058221    -0.007150     0.037935     0.003515     0.044301
0.788400     0.070202    -0.167184    -0.006158     0.126414     0.034920     0.035911
0.789600    -0.091166     0.026334    -0.009711     0.116619    -0.005517    -0.011002
0.790800    -0.101152    -0.001483    -0.105246    -0.022889     0.086413     0.110997
0.792000     0.016668     0.141908     0.091820    -0.040169    -0.019027    -0.055841
0.793200     0.093914     0.016031     0.052248     0.110798    -0.010671    -0.010458
0.794400     0.082920    -0.052645     0.042255    -0.040304    -0.051082    -0.002408
0.795600    -0.088282    -0.082327    -0.060115    -0.033784    -0.044188    -0.113961
0.796800    -0.035495     0.109755    -0.009624     0.018844    -0.015807     0.107098
0.798000    -0.015778    -0.050464    -0.121287    -0.139587     0.037955     0.064588
0.799200     0.032713     0.088573     0.096188     0.064361     0.000404    -0.040865
0.800400     0.019137     0.014566    -0.037022    -0.005224     0.076318    -0.041179
0.801600     0.010186     0.106785    -0.061672     0.000957     0.019058     0.042237
0.802800     0.164065     0.013944     0.026403     0.004672     0.107197     0.077882
0.804000    -0.045058    -0.001478    -0.054028    -0.142464    -0.008240    -0.076576
0.805200     0.122652     0.111467     0.029991    -0.067811     0.030559     0.037909
0.806400     0.059373    -0.052521     0.106039     0.050855     0.056768    -0.140748
0.807600    -0.013775    -0.030875    -0.104866    -0.022879    -0.050220    -0.004163
0.808800    -0.041760    -0.104970    -0.104456    -0.095583     0.035314     0.003636
0.810000     0.057471     0.003608     0.072411    -0.043710     0.082011    -0.073519
0.811200    -0.067827     0.118965    -0.036154     0.055572    -0.004212    -0.034084
0.812400    -0.029958    -0.009332    -0.088095     0.081602     0.006799    -0.048732
0.813600    -0.077041    -0.073720    -0.052245    -0.157324     0.076855     0.002947
0.814800    -0.022983     0.048550    -0.043708     0.158475    -0.037879     0.062169
0.816000    -0.068938     0.000832    -0.009615     0.045808     0.101277    -0.047708
0.817200     0.132270    -0.034873     0.094594     0.116122     0.037846     0.008544
0.818400     0.054738     0.048209    -0.019253    -0.151613     0.041112    -0.120965
0.819600     0.100794    -0.006826    -0.067339     0.017884    -0.036263    -0.012380
0.820800    -0.027926     0.005876    -0.065328     0.076585    -0.023541    -0.068207
0.822000     0.091873     0.152808     0.124586    -0.054133     0.016758     0.036284
0.823200     0.054121     0.007946     0.047579    -0.134477    -0.054917     0.069211
0.824400     0.130857     0.109425     0.018129    -0.096351     0.014359    -0.028849
0.825600    -0.027806     0.042068     0.011285     0.049974    -0.034274     0.050403
0.826800     0.068328    -0.034300    -0.031170    -0.015315     0.017281    -0.018101
0.828000     0.045755     0.064930    -0.079371     0.090781    -0.020190     0.068138
0.829200     0.002563     0.009060     0.040529    -0.136783    -0.011460    -0.057121
0.830400     0.066499     0.058682    -0.168518     0.028815     0.042227     0.110305
0.831600    -0.054442     0.064720    -0.089273     0.006179     0.009530    -0.078067
0.832800     0.024263     0.089790    -0.136564     0.009946     0.035388     0.048569
0.834000     0.004520    -0.052908    -0.025921     0.000677     0.057681    -0.004774
0.835200    -0.039475     0.084941     0.027561    -0.141017    -0.203889     0.047865
0.836400     0.026518     0.158198     0.027696    -0.070039    -0.102952     0.035737
0.837600    -0.060054    -0.007444    -0.026075     0.041912     0.143532     0.035568
0.838800     0.039237    -0.007731     0.133418    -0.017675    -0.011378     0.018532
0.840000    -0.042604     0.158382    -0.082440    -0.051015    -0.036676     0.032595
0.841200     0.075566    -0.019014     0.043102    -0.101518     0.138503    -0.058321
0.842400     0.004155     0.017894    -0.060737    -0.023114    -0.004850    -0.050186
0.843600     0.044512     0.049425     0.011284     0.059279     0.064569    -0.001632
0.844800    -0.015210    -0.008072    -0.166320    -0.044766    -0.016063    -0.071809
0.846000     0.006869    -0.024089     0.009709     0.042240     0.006048     0.049482
0.847200     0.002647     0.018520    -0.049765    -0.009374    -0.079987     0.043755
0.848400     0.063790    -0.008759     0.002480    -0.030022    -0.016410     0.092056
0.849600    -0.031443    -0.019323    -0.030980     0.082693     0.053691    -0.003454
0.850800    -0.063436     0.095499     0.000298    -0.044406    -0.032395    -0.033229
0.852000    -0.021921    -0.046020     0.003090     0.015537     0.019601    -0.055188
0.853200    -0.006290    -0.011743    -0.077531     0.031057     0.093373     0.137462
0.854400    -0.017578    -0.016646    -0.019437    -0.094109     0.062680    -0.029248
0.855600     0.003435    -0.063880    -0.088225     0.005464    -0.006065    -0.049544
0.856800    -0.027724     0.148100     0.031824    -0.071066    -0.017356    -0.019626
0.858000     0.026593    -0.035292     0.115639    -0.068387    -0.022737    -0.010119
0.859200     0.174556     0.056086    -0.011356     0.074056     0.047475    -0.108900
0.860400    -0.084567    -0.070656    -0.017429     0.050836    -0.033130    -0.006751
0.861600     0.070661    -0.011231    -0.023942    -0.027065    -0.076662    -0.026943
0.862800     0.040264    -0.172976    -0.061708     0.023963     0.057949     0.008053
0.864000     0.018282     0.039048     0.084894    -0.045280     0.016517    -0.026298
0.865200    -0.015560    -0.044566     0.080424     0.018356     0.009525    -0.109214
0.866400    -0.016968    -0.118189     0.012277    -0.071272     0.077535    -0.020735
0.867600     0.004977     0.003495    -0.080675     0.036835    -0.027150     0.038153
0.868800    -0.033059     0.063516     0.080913    -0.044622     0.046774    -0.076682
0.870000     0.029621    -0.113646    -0.046254     0.079870    -0.008112     0.012299
0.871200    -0.036969     0.089765    -0.012314     0.037946     0.069321    -0.004873
0.872400     0.150969    -0.083715     0.019302     0.006690     0.165404    -0.073513
0.873600    -0.125124    -0.014084    -0.030893     0.019084    -0.079551     0.113660
0.874800    -0.043309     0.025429    -0.100096    -0.021070    -0.066472    -0.018005
0.876000     0.088421     0.053502    -0.014028    -0.062354     0.075791     0.067992
0.877200    -0.014724    -0.071559     0.016596     0.027673    -0.006701    -0.076598
0.878400    -0.078734     0.016133    -0.081195    -0.065684    -0.017183    -0.033984
0.879600    -0.098166     0.019961    -0.078994     0.035384    -0.003039     0.028486
0.880800     0.085557    -0.014781    -0.041849     0.020564    -0.008999     0.076995
0.882000     0.079753     0.066628     0.041466     0.038998    -0.053665    -0.026694
0.883200    -0.140958    -0.075793     0.093228     0.047097     0.055516     0.111540
0.884400    -0.045686    -0.020165     0.031426     0.007831    -0.007641     0.068110
0.885600     0.092483     0.106886    -0.015398     0.059013     0.072521     0.119018
0.886800    -0.041218     0.093902    -0.034694     0.006844    -0.093232     0.018667
0.888000     0.022986     0.020344    -0.037613     0.009258     0.187203     0.033599
0.889200     0.081194    -0.090370    -0.032998     0.075488     0.155545     0.065571
0.890400    -0.019173     0.036744     0.007952    -0.033108    -0.000972     0.056939
0.891600    -0.011752     0.001342    -0.049061    -0.059068     0.046805    -0.010692
0.892800     0.021291    -0.031552     0.134803    -0.011445    -0.032840     0.064291
0.894000     0.057174     0.078139    -0.068493     0.036334    -0.024990    -0.091090
0.895200     0.011890     0.004789     0.033102     0.095429    -0.012507     0.056888
0.896400     0.067162     0.007874    -0.010821     0.016422    -0.128488    -0.095392
0.897600    -0.084371    -0.197852     0.000667    -0.043855     0.059524     0.073317
0.898800    -0.031494     0.023777    -0.055300     0.087705    -0.045794    -0.117689
0.900000     0.032623     0.018846     0.071273     0.027709    -0.056551    -0.015644
0.901200     0.039760     0.003880    -0.057079    -0.060061     0.035028    -0.031828
0.902400    -0.075628    -0.026192    -0.096145     0.063937     0.033638     0.031891
0.903600    -0.017272     0.031119     0.027244    -0.117392     0.021301     0.053384
0.904800    -0.032007     0.086228    -0.014508    -0.040495    -0.038546     0.079559
0.906000    -0.059135     0.001114     0.003809     0.026455     0.012148     0.030548
0.907200     0.042175    -0.031030     0.017639    -0.042616    -0.017692    -0.028254
0.908400    -0.059444     0.031719    -0.057431    -0.078424    -0.024516     0.032932
0.909600    -0.033141     0.040393    -0.059657     0.063790    -0.001454     0.052976
0.910800    -0.019407     0.012297    -0.026619     0.017048    -0.054522    -0.032872
0.912000     0.019368    -0.041091     0.007601     0.078265    -0.002198    -0.025133
0.913200    -0.051722    -0.067514    -0.023800     0.061260     0.023550    -0.052799
0.914400     0.000928     0.110884    -0.062576    -0.025874     0.006029     0.017821
0.915600    -0.035761    -0.022870     0.075363     0.040246     0.120321    -0.028687
0.916800    -0.025503    -0.035939     0.027365    -0.111033     0.051057     0.043625
0.918000     0.052301     0.005346     0.054580    -0.002466     0.087221     0.072438
0.919200     0.041239     0.051403     0.039535     0.009210    -0.038935    -0.023299
0.920400    -0.015817    -0.017183    -0.000571    -0.055792    -0.018351    -0.010044
0.921600    -0.019528    -0.007761     0.100950    -0.107909     0.043760     0.021819
0.922800     0.048071    -0.019900     0.085412    -0.142469    -0.037053    -0.032118
0.924000    -0.007910    -0.058808    -0.055078     0.036341     0.003328    -0.032117
0.925200     0.069281     0.022507     0.067447    -0.026554     0.051090     0.024902
0.926400     0.037203    -0.003863    -0.038482    -0.000914     0.011882     0.021275
0.927600    -0.087593     0.044958    -0.029469    -0.049737     0.064573    -0.031566
0.928800    -0.023306     0.063610    -0.075486     0.039669    -0.049923    -0.004852
0.930000     0.046905    -0.063042     0.038684    -0.009075    -0.047158    -0.026048
0.931200    -0.007750     0.046655    -0.005180    -0.041085    -0.007896     0.066972
0.932400     0.035642    -0.016846     0.005646    -0.002981     0.096804     0.087779
0.933600    -0.047255     0.010808    -0.047579     0.117225    -0.006780    -0.066973
0.934800     0.021465    -0.049300     0.029992    -0.035763    -0.003226    -0.058744
0.936000    -0.044211    -0.063581     0.102953    -0.076424    -0.032740     0.029628
0.937200    -0.086043     0.023536     0.040421     0.028713    -0.058408    -0.011132
0.938400    -0.056210     0.024349    -0.013520     0.029736     0.012547     0.030544
0.939600     0.018396    -0.023600     0.045048     0.010438    -0.033575    -0.014241
0.940800    -0.087355    -0.002668    -0.003638    -0.003356    -0.042890    -0.003008
0.942000    -0.009907    -0.011869    -0.064518     0.074536     0.014246    -0.009364
0.943200    -0.037897     0.033910     0.035525    -0.038425    -0.027381    -0.008103
0.944400    -0.049795    -0.033500     0.012666    -0.020692    -0.065232    -0.055035
0.945600     0.017684     0.000369     0.008590    -0.036586    -0.034697    -0.057699
0.946800    -0.023143    -0.099749    -0.065995    -0.064466    -0.031209    -0.038729
0.948000     0.016900     0.037094     0.072373     0.007271     0.045235     0.055805
0.949200    -0.021981    -0.032634     0.126875     0.001963    -0.021829     0.042318
0.950400    -0.012875    -0.086805    -0.000403     0.008513     0.052021     0.025040
0.951600    -0.021368    -0.068256    -0.001512     0.102857     0.013739    -0.003259
0.952800    -0.010324    -0.018015     0.009964     0.037868     0.010452     0.027100
0.954000    -0.003160    -0.021523     0.041938    -0.035643     0.036512    -0.063418
0.955200    -0.002979    -0.040425    -0.003899     0.087657     0.048271     0.032504
0.956400    -0.016470     0.040069    -0.069622    -0.024787    -0.011229     0.026183
0.957600    -0.076579    -0.041492     0.041889     0.031143    -0.053851    -0.025485
0.958800     0.095736     0.018715    -0.036600     0.002965     0.039315    -0.010667
0.960000     0.055943     0.025248     0.036893     0.042493    -0.063694     0.095736
0.961200    -0.112143    -0.066252     0.000190     0.016611    -0.069677     0.010747
0.962400     0.030491     0.040278    -0.016894     0.033036    -0.000267    -0.037196
0.963600     0.084683     0.028722     0.044248     0.031011     0.031484    -0.037564
0.964800    -0.058667     0.049496    -0.031541    -0.028394     0.000558    -0.009833
0.966000    -0.018548     0.053514    -0.038413     0.018504    -0.060678     0.062183
0.967200    -0.027358     0.002250    -0.018680     0.066855    -0.033060     0.094693
0.968400    -0.049681    -0.070745     0.064139    -0.015783    -0.065592    -0.023559
0.969600    -0.008348     0.004015    -0.028500     0.071340     0.052300    -0.098464
0.970800     0.014212    -0.007686    -0.013262    -0.025104     0.035787     0.015065
0.972000     0.030118     0.042510     0.015360    -0.046972     0.012815     0.000856
0.973200    -0.058666     0.026576    -0.089185     0.064660     0.032129     0.025765
0.974400    -0.002496    -0.000384     0.030823    -0.048296     0.014354    -0.027288
0.975600    -0.017260     0.012946    -0.063688     0.046034     0.045874     0.062870
0.976800    -0.008407    -0.015480    -0.019136     0.005720    -0.022501     0.055036
0.978000     0.038089    -0.063814    -0.088687    -0.024954     0.008322    -0.021022
0.979200    -0.031138    -0.022240     0.033057     0.021992     0.043522    -0.068815
0.980400    -0.010890     0.058058    -0.036489     0.084471     0.052504     0.015016
0.981600     0.003534     0.018212     0.014768     0.002531    -0.002077     0.012011
0.982800     0.022789     0.029944    -0.072757     0.030402     0.085190     0.081344
0.984000     0.004979    -0.002343     0.018976     0.005664     0.079648     0.043828
0.985200    -0.050467    -0.014339     0.049305     0.049247    -0.032263     0.055971
0.986400     0.084384     0.054135     0.042743    -0.020155     0.040121     0.003618
0.987600    -0.004012     0.050896     0.016147     0.001928     0.006309     0.005091
0.988800     0.061576    -0.052180    -0.091096    -0.033247    -0.029865     0.031550
0.990000    -0.033751     0.015710     0.048958     0.011637     0.033821     0.130814
0.991200     0.074238    -0.030931     0.024975     0.043478    -0.030504     0.045610
0.992400     0.045183    -0.050179     0.034281     0.030995    -0.044126    -0.020123
0.993600     0.055845    -0.041038    -0.012720    -0.008435     0.039593    -0.021793
0.994800    -0.082419     0.030301     0.063245     0.010573    -0.007079    -0.028479
0.996000     0.018648     0.105224    -0.030986    -0.048845     0.033950    -0.008614
0.997200    -0.026819    -0.006600    -0.001446    -0.034761    -0.057857     0.032575
0.998400    -0.029159     0.028907    -0.001253    -0.011594    -0.047196    -0.006190
0.999600     0.028971    -0.002667     0.073722    -0.066370     0.042108    -0.026318
1.000800     0.024152    -0.008765     0.009732     0.017602    -0.010253     0.074359
1.002000     0.036645     0.048512     0.004824    -0.004521     0.053191     0.022252
1.003200     0.086544    -0.019556     0.015828     0.017675     0.063432    -0.036866
1.004400     0.053227     0.044361     0.080811    -0.032317    -0.020088    -0.008496
1.005600    -0.018649     0.059268     0.066499    -0.086546     0.011247     0.011718
1.006800    -0.046522     0.026995     0.032541    -0.053315     0.019490    -0.017302
1.008000     0.070455    -0.046233    -0.003438    -0.019126    -0.003505     0.025868
1.009200    -0.016479    -0.047670    -0.029225     0.050644    -0.042698     0.039136
1.010400     0.041717     0.038276     0.022636     0.073880     0.029286    -0.040944
1.011600    -0.005204     0.008185    -0.005733     0.027177    -0.012376    -0.035329
1.012800     0.042648     0.000568    -0.072306     0.012652    -0.026681     0.001258
1.014000     0.044108    -0.056510     0.011984     0.051553    -0.070600     0.053166
1.015200    -0.028644     0.011592     0.017238     0.006619    -0.062087     0.024070
1.016400     0.029846     0.016244     0.017381     0.008454    -0.001012    -0.004810
1.017600    -0.014382    -0.012538     0.007027    -0.069841     0.024671     0.029020
1.018800     0.022747     0.009472    -0.069432    -0.011504     0.042445    -0.020470
1.020000    -0.027311    -0.020842     0.030781     0.078623     0.040630     0.042170
1.021200    -0.005784    -0.012252     0.040948     0.062306    -0.029357     0.009674
1.022400    -0.025418     0.025269    -0.003285     0.050789    -0.062109    -0.056947
1.023600    -0.027056     0.018583     0.016821    -0.017763     0.006495    -0.040088
1.024800    -0.012782     0.001227    -0.025771    -0.023895     0.000961    -0.020503
1.026000    -0.011372     0.024166    -0.017513     0.034051     0.014230    -0.013218
1.027200    -0.053126    -0.037628     0.003451    -0.016494    -0.003154    -0.010704
1.028400     0.005564    -0.061190    -0.007838    -0.046161     0.008711    -0.015214
1.029600    -0.022342     0.027981     0.031810    -0.027031    -0.006967    -0.028645
1.030800    -0.012013    -0.045628     0.055201     0.031377    -0.022511     0.018931
1.032000    -0.064287     0.035058    -0.017545    -0.021001     0.005671    -0.022280
1.033200     0.064587    -0.001405    -0.006267    -0.010665     0.038394    -0.047097
1.034400    -0.083850     0.023579     0.093416    -0.064722    -0.011357    -0.053789
1.035600    -0.011668     0.014780    -0.016167     0.032685    -0.051543     0.012767
1.036800    -0.051251     0.001339     0.038167     0.024547    -0.007440    -0.022695
1.038000     0.010284    -0.030740     0.015744     0.004378    -0.086845     0.006907
1.039200     0.034315     0.003431    -0.054507     0.037674     0.050655     0.023777
1.040400    -0.029976     0.017726    -0.007966     0.024329    -0.039999    -0.004867
1.041600    -0.026353    -0.053715    -0.047415    -0.022273     0.052120     0.017404
1.042800     0.007180    -0.007606    -0.035187     0.010183     0.039272    -0.031594
1.044000    -0.034591    -0.013217    -0.019094     0.003376    -0.006898    -0.020244
1.045200    -0.008464     0.021414    -0.019439     0.064980    -0.009718    -0.024465
1.046400     0.064700     0.048708    -0.025642    -0.039109    -0.100176     0.018056
1.047600     0.037063     0.029455     0.009664    -0.028583     0.019399     0.019119
1.048800     0.004923    -0.014150     0.085060    -0.015738    -0.026494    -0.033601
1.050000    -0.051223     0.032920     0.001855     0.012907    -0.003812     0.001759
1.051200     0.008490     0.011415     0.029601     0.024788    -0.089933     0.039484
1.052400    -0.004288     0.009918     0.049533    -0.023571    -0.014882     0.011961
1.053600    -0.018357     0.029624     0.062776    -0.017285    -0.006406     0.034132
1.054800     0.059600    -0.002911    -0.010128    -0.007801    -0.014331    -0.043079
1.056000    -0.032808    -0.003342     0.001708    -0.036030     0.028352     0.071380
1.057200     0.049597     0.025712    -0.008109    -0.003855     0.018872    -0.000363
1.058400    -0.002327    -0.014570    -0.031259    -0.028254     0.009439    -0.000004
1.059600     0.011472    -0.018991    -0.035726     0.064752     0.020521     0.006143
1.060800     0.024597    -0.035603     0.025577    -0.032930     0.044918     0.008938
1.062000     0.034578     0.001396     0.008779     0.019670     0.029191     0.002616
1.063200    -0.056035     0.032472    -0.026440    -0.055036     0.006579     0.022870
1.064400    -0.006840    -0.025436     0.003705    -0.016524    -0.018707     0.052554
1.065600     0.027829    -0.016265    -0.069587    -0.035051    -0.016687    -0.051823
1.066800     0.016676    -0.049455     0.008329    -0.042065     0.053614    -0.021659
1.068000     0.048696     0.040791    -0.019248    -0.016945    -0.030373    -0.016116
1.069200     0.021873     0.001754     0.057733     0.023747    -0.019779    -0.005409
1.070400    -0.031350     0.038446     0.003698    -0.020336    -0.006799    -0.000835
1.071600     0.012925    -0.029333    -0.041558    -0.008527    -0.029518    -0.035588
1.072800    -0.048803    -0.047140    -0.010711    -0.001822     0.032829     0.029310
1.074000     0.009920     0.000609     0.025083     0.007089    -0.005964    -0.024411
1.075200     0.066844    -0.000525    -0.004392    -0.021049     0.033791     0.013015
1.076400     0.022254    -0.046902     0.017657    -0.001940    -0.014662     0.034222
1.077600    -0.020897     0.032284     0.010233     0.007395    -0.013185    -0.038019
1.078800     0.014437     0.030527     0.026014    -0.044310    -0.022967    -0.010367
1.080000     0.031528    -0.062626     0.021107     0.016062    -0.013874     0.011225
1.081200     0.061227     0.006862     0.032399    -0.048120    -0.011167     0.008707
1.082400    -0.019574    -0.005433     0.031211    -0.027523    -0.041997    -0.020095
1.083600     0.017052    -0.001819     0.027261    -0.040008     0.025487     0.008791
1.084800    -0.049711     0.034529    -0.028058     0.042171     0.018242     0.001841
1.086000    -0.021755    -0.039056     0.028581     0.031782     0.049242     0.014309
1.087200    -0.002484     0.045978     0.005443    -0.035086    -0.019688    -0.026062
1.088400    -0.054468     0.010731    -0.016844    -0.008604     0.031997    -0.011856
1.089600     0.041905     0.015070    -0.015602     0.018938    -0.009715     0.032257
1.090800    -0.024392     0.026687     0.028731    -0.028294    -0.032969     0.013412
1.092000    -0.035590    -0.055018     0.022566    -0.007051     0.015956     0.025043
1.093200     0.039709    -0.015993     0.039550    -0.023989     0.015230    -0.021641
1.094400     0.041001     0.028111    -0.041306    -0.033141     0.010703    -0.039717
1.095600     0.024145    -0.029553    -0.002621    -0.017501    -0.011017     0.016376
1.096800     0.059134    -0.026145     0.022362     0.021454     0.050782     0.007108
1.098000    -0.003944     0.016233    -0.013055     0.040911     0.003861     0.022113
1.099200    -0.000142     0.014477     0.006053    -0.062962    -0.042903     0.026886
1.100400     0.003038     0.032730     0.024610     0.027523     0.012686     0.066131
1.101600     0.022453    -0.041857     0.034555    -0.015529     0.019929    -0.036491
1.102800     0.014893     0.034613     0.032004    -0.037326     0.028707    -0.017241
1.104000     0.011721    -0.002255    -0.030953    -0.022878    -0.000221    -0.004281
1.105200     0.027879    -0.073180    -0.005370    -0.012293    -0.024867    -0.036139
1.106400     0.000925     0.015099     0.014188    -0.031603    -0.033515    -0.075025
1.107600     0.015890     0.012567     0.020050     0.020597    -0.002216     0.011439
1.108800     0.033405     0.033553    -0.006484     0.013077     0.013913     0.013217
1.110000    -0.028456     0.018799     0.029639    -0.023110    -0.023860     0.016276
1.111200     0.027085    -0.000627    -0.046443    -0.016339    -0.000508    -0.015100
1.112400    -0.041889    -0.016698     0.006909     0.007652    -0.021402    -0.052214
1.113600    -0.022672    -0.011151     0.009371     0.059046     0.031703    -0.030592
1.114800     0.013520     0.028049    -0.003352    -0.009682    -0.013170    -0.019942
1.116000     0.030305     0.034673     0.073094    -0.006410    -0.002278    -0.039619
1.117200     0.038445     0.007018     0.013150     0.031918    -0.019975     0.020502
1.118400    -0.057208    -0.028382    -0.021689     0.077108     0.002344    -0.030927
1.119600     0.033474     0.023243    -0.015061    -0.000595    -0.030563     0.028637
1.120800     0.012209    -0.027634    -0.042435     0.026847     0.002890     0.026378
1.122000    -0.037113     0.036899    -0.006147    -0.013710    -0.000426     0.009022
1.123200     0.012240     0.056583     0.020148     0.044892    -0.029468     0.022816
1.124400     0.008885     0.013045    -0.017632    -0.024518     0.016117    -0.038309
1.125600    -0.003727     0.017850     0.040049    -0.013448    -0.027936    -0.004758
1.126800    -0.006797    -0.008712     0.021089     0.013004    -0.012440     0.017533
1.128000     0.039619    -0.023452     0.007256    -0.023160    -0.005028     0.034722
1.129200     0.033378    -0.010997    -0.029054     0.024947    -0.005150    -0.004386
1.130400    -0.021868    -0.029092     0.034204     0.035234     0.010941     0.036982
1.131600    -0.027987    -0.012428    -0.016915    -0.036904     0.022928    -0.013822
1.132800    -0.024081    -0.015186     0.000904     0.008944    -0.004771    -0.014953
1.134000     0.037115     0.001800    -0.017148    -0.017417    -0.022736    -0.045155
1.135200    -0.004185    -0.053979     0.015029    -0.007416     0.012584    -0.007849
1.136400     0.057035     0.015983    -0.015175     0.021517    -0.005528    -0.005387
1.137600    -0.024904     0.009321     0.016787    -0.014182     0.006417    -0.016873
1.138800     0.002447     0.004433    -0.029801     0.019237     0.068447     0.024677
1.140000     0.040917     0.008361     0.004564    -0.053810     0.011959    -0.034008
1.141200     0.007503     0.029239     0.026581     0.003846     0.012703    -0.025138
1.142400     0.027702    -0.020168    -0.013907     0.019117     0.015011    -0.042564
1.143600     0.007067     0.013131     0.004488     0.012684     0.056742     0.018138
1.144800    -0.009957    -0.004175     0.002193    -0.018410    -0.037072     0.030958
1.146000     0.005479    -0.033413     0.030894    -0.016508     0.004781    -0.038216
1.147200    -0.003061     0.020973    -0.007837    -0.005926     0.001962     0.058675
1.148400    -0.019102    -0.038293     0.008985     0.017123     0.021720     0.013697
1.149600    -0.056236     0.004772    -0.013841    -0.025412    -0.014756    -0.029339
1.150800    -0.025331     0.017164     0.028596     0.023151    -0.010661     0.008311
1.152000    -0.012229    -0.016518     0.015183    -0.013713    -0.024259    -0.005181
1.153200     0.031039     0.018057     0.049995     0.007054    -0.006890     0.008914
1.154400     0.017282    -0.001494     0.000832    -0.011852     0.037263    -0.002758
1.155600     0.007725    -0.006740    -0.017166     0.021084     0.005813    -0.007627
1.156800    -0.027354     0.019305    -0.053256    -0.002327     0.009077     0.036712
1.158000    -0.011228    -0.016730    -0.007092    -0.053198     0.020586     0.008246
1.159200    -0.005261    -0.011710    -0.024918     0.026796     0.007893    -0.005336
1.160400    -0.042953    -0.005969    -0.024358     0.042890     0.046798    -0.005134
1.161600     0.021702     0.006133     0.024648    -0.009365     0.011942     0.006540
1.162800     0.003344     0.021337     0.021756     0.034850     0.004825    -0.012890
1.164000    -0.017246     0.037932    -0.020645    -0.012922     0.002662    -0.021219
1.165200     0.018799     0.001750    -0.026931    -0.017390     0.045551     0.004196
1.166400     0.040463     0.008123    -0.004485    -0.006863    -0.065374     0.028569
1.167600     0.032624     0.029928    -0.016034     0.035678     0.024669    -0.049164
1.168800     0.003445    -0.003336    -0.001219     0.010328     0.027097    -0.015009
1.170000     0.011861     0.004969     0.005965    -0.007261     0.022356     0.015184
1.171200    -0.020097     0.000557     0.045248     0.024568    -0.011416     0.016762
1.172400    -0.032978     0.007715    -0.039868     0.007008    -0.035362    -0.016107
1.173600     0.031882    -0.007518    -0.010017     0.012590     0.015615     0.044479
1.174800     0.019076    -0.023056     0.029479     0.045112    -0.014897     0.040265
1.176000    -0.013399     0.007360     0.023255    -0.031489    -0.003285    -0.035049
1.177200     0.018762    -0.009379     0.000022     0.043093    -0.014449     0.000163
1.178400    -0.014401     0.000702     0.012572    -0.006704     0.018265    -0.006170
1.179600    -0.000533     0.012982    -0.031066     0.000942     0.035866     0.014378
1.180800    -0.002507    -0.025052    -0.011114    -0.006676     0.003158     0.030805
1.182000    -0.024427    -0.004171     0.006129    -0.012701    -0.022490    -0.003115
1.183200    -0.022933     0.038592    -0.034556     0.003471    -0.011877    -0.018295
1.184400    -0.003423    -0.005073    -0.010399     0.001237    -0.001914    -0.009390
1.185600     0.013833     0.026102    -0.008585     0.001901     0.004931     0.021557
1.186800    -0.000344    -0.011434    -0.029668    -0.008852    -0.018077    -0.013249
1.188000    -0.011616    -0.024263    -0.002826     0.007755    -0.003226    -0.006077
1.189200    -0.024585    -0.025558    -0.040593    -0.009139     0.003349    -0.007221
1.190400     0.012177    -0.007668     0.001922    -0.008571     0.040572     0.004639
1.191600    -0.013227    -0.021395     0.002874     0.004904    -0.001908    -0.008302
1.192800     0.029667     0.015652    -0.019083     0.005940     0.002895     0.020716
1.194000     0.005778    -0.002289     0.031395    -0.037220    -0.010855     0.014899
1.195200     0.031003    -0.004363     0.013169    -0.002679    -0.011089    -0.002146
1.196400    -0.011540     0.007893    -0.028172     0.023454    -0.029746    -0.000309
1.197600     0.016933     0.011470     0.003491     0.021973    -0.002115     0.003215
1.198800    -0.016728     0.056962     0.010877    -0.018142    -0.011129    -0.022665
1.200000     0.013800     0.003147    -0.004118     0.011096    -0.001115     0.032722
1.201200    -0.017137     0.019270     0.013859     0.032947    -0.006145    -0.027304
1.202400    -0.008501    -0.004326    -0.003370    -0.010291    -0.019020     0.016955
1.203600    -0.006885    -0.000207    -0.013286    -0.023225     0.023756    -0.016628
1.204800    -0.029423    -0.026924     0.016409    -0.015730     0.003134    -0.011324
1.206000    -0.005250    -0.034681     0.010290    -0.006174     0.001815     0.006555
1.207200    -0.013113     0.012057    -0.016744     0.007449    -0.008982    -0.007676
1.208400    -0.011472    -0.018550     0.026244     0.001595     0.024321     0.021457
1.209600     0.004265    -0.027901    -0.010744    -0.011717     0.030672     0.030214
1.210800     0.027617     0.023402    -0.004717    -0.035702     0.038391    -0.021156
1.212000     0.041404    -0.007107     0.018476    -0.000826    -0.013694     0.016496
1.213200    -0.015694     0.017315    -0.027395     0.017169    -0.016888     0.004475
1.214400    -0.023354     0.015542     0.005723    -0.001869    -0.039430    -0.001028
1.215600    -0.023674     0.003525    -0.010614    -0.018635    -0.003918     0.016308
1.216800     0.021758    -0.009494    -0.007477    -0.008192    -0.006229    -0.025986
1.218000     0.027326     0.000222     0.012766     0.034352    -0.006232    -0.029405
1.219200    -0.004003     0.028015     0.012243     0.013353    -0.023901     0.005637
1.220400    -0.004400     0.009184     0.038341     0.008353    -0.020814     0.016495
1.221600     0.009330     0.005211    -0.016619     0.017215     0.002859     0.013081
1.222800    -0.042709    -0.016426    -0.035533     0.009866    -0.017552    -0.005976
1.224000     0.010436     0.028959    -0.008871    -0.016452    -0.004684    -0.021565
1.225200    -0.016900    -0.002773    -0.007478     0.012630    -0.017149    -0.022451
1.226400    -0.015355     0.017197    -0.007751    -0.017213    -0.008020     0.014495
1.227600    -0.003138     0.025568     0.003895    -0.017362    -0.010514     0.022915
1.228800     0.001442     0.011643    -0.017869    -0.012013    -0.015578     0.010856
1.230000     0.006448    -0.036478    -0.001837     0.000105     0.020989     0.001217
1.231200     0.004466     0.027083    -0.019750    -0.002617     0.022377     0.027475
1.232400    -0.028031    -0.002515    -0.003572    -0.003398    -0.030564     0.013741
1.233600     0.002997    -0.021953    -0.006401    -0.033071     0.005284     0.033732
1.234800     0.030566     0.017593    -0.030053    -0.006305     0.010048     0.008482
1.236000    -0.018911     0.021461    -0.006879    -0.045154     0.013521     0.008867
1.237200    -0.001376     0.007579     0.004334     0.024923    -0.006055     0.016923
1.238400    -0.010707    -0.034920    -0.010206    -0.021244     0.007569    -0.006426
1.239600     0.017883    -0.015087    -0.034415     0.006631     0.018723    -0.016857
1.240800    -0.051193     0.005097     0.015089    -0.000945    -0.000038     0.012906
1.242000     0.002335     0.001431     0.039509    -0.006440    -0.012424     0.004015
1.243200    -0.004037     0.026644     0.008906     0.015967    -0.025879    -0.011000
1.244400     0.013260     0.044562     0.022989    -0.014509     0.031983     0.008534
1.245600    -0.011097    -0.012220     0.021133    -0.014418    -0.007933    -0.013535
1.246800     0.000442     0.023169    -0.011534    -0.009751    -0.022865     0.009214
1.248000    -0.002930     0.003623    -0.011847    -0.010625    -0.009495     0.019483
1.249200    -0.006442    -0.009041    -0.001745    -0.020121     0.000735     0.028248
1.250400     0.019244    -0.010026    -0.007398     0.012582     0.013661    -0.010809
1.251600     0.001294     0.005802     0.016649    -0.016124     0.000010     0.006616
1.252800     0.032203     0.006740     0.008476    -0.010926    -0.000154    -0.002328
1.254000     0.010020     0.012767     0.003231     0.003213     0.014526     0.002651
1.255200     0.004448    -0.004923    -0.033311    -0.026350     0.007520     0.005848
1.256400    -0.010725    -0.015463    -0.020468    -0.032070    -0.013922     0.015796
1.257600     0.018178     0.013207    -0.008229    -0.011123    -0.006178    -0.020234
1.258800     0.005488     0.008085    -0.008999    -0.028570    -0.009062     0.015293
1.260000     0.011282     0.011637    -0.026004     0.003026     0.009424     0.007135
1.261200     0.006913    -0.030229     0.023452     0.020360     0.020175     0.002029
1.262400     0.000193     0.023186     0.028772    -0.012402     0.014392    -0.015814
1.263600    -0.005901    -0.031247     0.007533    -0.006221    -0.013835     0.012166
1.264800     0.017926     0.004632     0.016260    -0.004381     0.015238     0.012164
1.266000     0.025206     0.004057    -0.005868     0.015334     0.012766     0.031562
1.267200     0.014024    -0.021917     0.003301     0.003970    -0.029065    -0.021512
1.268400     0.009636     0.002096     0.030675    -0.026946     0.028704    -0.001896
1.269600     0.018177     0.021669     0.024101    -0.004454     0.011019    -0.005030
1.270800    -0.018800     0.005167    -0.020885     0.007723     0.013844    -0.007172
1.272000    -0.022257     0.013241     0.019088    -0.020668    -0.010779     0.006352
1.273200     0.006879     0.002182    -0.016008     0.006117    -0.005075    -0.017634
1.274400     0.007043    -0.000972    -0.013086    -0.014378     0.021824    -0.002035
1.275600     0.013104    -0.033817    -0.018292     0.016800    -0.000720    -0.020934
1.276800     0.007359     0.011503     0.000675    -0.022311    -0.019206     0.003349
1.278000    -0.019698     0.012453    -0.053667     0.004188    -0.000777     0.003978
1.279200    -0.010277     0.014595    -0.003089     0.013156    -0.014693     0.009737
1.280400    -0.000731     0.020596     0.012409     0.019522    -0.001041    -0.004787
1.281600     0.008653    -0.007414     0.008274     0.003020     0.015213    -0.016435
1.282800     0.007197     0.008326    -0.032679     0.001453     0.018360     0.001950
1.284000    -0.015920    -0.012275    -0.012508    -0.000189     0.017150    -0.024425
1.285200    -0.005296     0.015310    -0.007516     0.005077    -0.010448    -0.019160
1.286400     0.007807    -0.039642    -0.015221     0.008914    -0.022478     0.018776
1.287600    -0.023708    -0.015356    -0.028003    -0.021872     0.010204    -0.008577
1.288800     0.000098    -0.000904    -0.003426    -0.019639     0.013627    -0.005041
1.290000    -0.016845     0.000111    -0.015090     0.000546    -0.013739    -0.010587
1.291200    -0.000691     0.030529    -0.006251    -0.010541    -0.007424    -0.000098
1.292400    -0.018260    -0.001136     0.006342    -0.033034    -0.019344    -0.019315
1.293600     0.001775    -0.036574     0.009192     0.019326     0.003814    -0.003877
1.294800    -0.005353    -0.004939     0.036223     0.022324     0.018517     0.008161
1.296000    -0.005621     0.010528     0.009620     0.004984    -0.018409    -0.001220
1.297200    -0.010289    -0.006353    -0.032961    -0.018276     0.007981    -0.017121
1.298400     0.017873    -0.007584    -0.011047     0.020537    -0.028222     0.021668
1.299600     0.025705    -0.003773     0.001641    -0.009124    -0.006889    -0.001143
1.300800     0.020454     0.008284    -0.026911    -0.010722     0.008484     0.043703
1.302000    -0.010023     0.003486    -0.010228    -0.002438     0.018272    -0.003542
1.303200     0.006782     0.011886    -0.008029     0.011635    -0.009252     0.017384
1.304400     0.002305    -0.015376    -0.004857    -0.012541    -0.020265    -0.012156
1.305600     0.001039    -0.016750     0.007426     0.026222     0.003549    -0.003771
1.306800    -0.013688     0.000547    -0.025673     0.001033     0.005274     0.012894
1.308000    -0.002257     0.028725     0.004042    -0.003759     0.010081     0.004496
1.309200     0.008626    -0.009946    -0.008052    -0.027671     0.022779     0.004432
1.310400    -0.015276    -0.003957     0.001149     0.031662     0.005162    -0.016563
1.311600     0.017134    -0.024161    -0.004105    -0.000972    -0.026431     0.006162
1.312800    -0.000589    -0.016891    -0.008208     0.024758     0.000418    -0.046597
1.314000     0.009852    -0.028724     0.017940     0.012001    -0.007220    -0.031347
1.315200    -0.011043     0.008064    -0.017496     0.005245     0.010492     0.006341
1.316400     0.003754     0.021409    -0.009111     0.002745     0.004112     0.004954
1.317600    -0.019105     0.010558     0.013412     0.000377    -0.002425    -0.014124
1.318800     0.011239     0.007824     0.011163     0.002371    -0.023810    -0.015467
1.320000     0.009817     0.003037    -0.047520    -0.000540    -0.020858    -0.026489
1.321200    -0.011066     0.001719     0.006288    -0.018557     0.009812    -0.016476
1.322400    -0.003746     0.009321    -0.009096    -0.003815    -0.010501     0.026514
1.323600     0.021595    -0.029121     0.001293    -0.006606     0.008774    -0.003151
1.324800     0.006370    -0.004804    -0.006833    -0.006317     0.004278    -0.007615
1.326000    -0.010113    -0.003577    -0.010849     0.014803     0.013197    -0.007005
1.327200     0.007979     0.007396     0.008466     0.003075     0.007812     0.001588
1.328400     0.005162    -0.006354     0.009432     0.006348    -0.020562     0.004766
1.329600     0.030816     0.005159    -0.002191     0.021636     0.006271     0.007813
1.330800    -0.002427     0.002815     0.014520    -0.019213     0.005730    -0.000774
1.332000     0.019141    -0.003920     0.023124    -0.017309     0.024912     0.004983
1.333200     0.032969    -0.000591     0.014475     0.020231     0.016716    -0.011356
1.334400    -0.003528     0.011778     0.010717     0.002977    -0.007439    -0.009160
1.335600     0.027141     0.018273     0.022377     0.007512     0.000887    -0.014566
1.336800     0.031450    -0.012623    -0.015852    -0.013643     0.018844    -0.010769
1.338000    -0.003525    -0.005847     0.014661    -0.007337     0.032108    -0.008581
1.339200    -0.005600     0.000045    -0.011719     0.007263     0.005232    -0.008004
1.340400     0.005472    -0.012413    -0.008854     0.013614     0.015864     0.009993
1.341600    -0.009682     0.010687    -0.017189    -0.019573    -0.015756     0.003704
1.342800     0.005596    -0.009276    -0.002306     0.007335    -0.010579    -0.025381
1.344000    -0.016422    -0.016671    -0.012725    -0.012937    -0.005979     0.000661
1.345200     0.020305     0.004478    -0.030792    -0.027431    -0.006845    -0.011516
1.346400     0.014894    -0.002961    -0.015936     0.000623     0.016545    -0.010620
1.347600     0.008253     0.019310    -0.007447     0.002613    -0.008487    -0.007779
1.348800    -0.003741    -0.013595    -0.003631     0.004529     0.011715     0.004375
1.350000     0.023051     0.015541    -0.005316    -0.014867    -0.010908     0.002527
1.351200     0.014593     0.020535     0.010132     0.003665    -0.018136    -0.001353
1.352400     0.000465     0.008122    -0.005520    -0.002352     0.015935     0.003593
1.353600     0.021270    -0.006368    -0.008187    -0.030639    -0.004091    -0.006270
1.354800     0.002509    -0.002440     0.000534    -0.001893    -0.001117    -0.025120
1.356000    -0.001867    -0.002345     0.009338     0.005334     0.008241     0.009771
1.357200     0.011113     0.015525    -0.004700    -0.007198    -0.003578    -0.015777
1.358400     0.015231     0.018912     0.013281     0.005275    -0.017339    -0.032014
1.359600     0.012619     0.009319     0.010816     0.009209    -0.008663    -0.011625
1.360800    -0.020822     0.021122     0.016493    -0.011133     0.036265     0.012104
1.362000     0.017094     0.016360     0.000576     0.015284    -0.013717    -0.007094
1.363200    -0.004659     0.000839    -0.004854    -0.000057     0.004796     0.005766
1.364400     0.006521     0.008095    -0.015530     0.014978    -0.001521    -0.007815
1.365600     0.000651    -0.012165     0.020787     0.000686     0.025719    -0.018280
1.366800     0.008045    -0.010447    -0.006579    -0.018883    -0.011737     0.024082
1.368000    -0.009133     0.016070     0.004207    -0.003341     0.009281    -0.013642
1.369200    -0.008129    -0.012920     0.014697    -0.007739    -0.011830     0.002302
1.370400     0.010499    -0.009090    -0.004646     0.003475     0.006970     0.008498
1.371600     0.004982     0.014284     0.000023     0.000853     0.004512     0.025204
1.372800     0.004679    -0.010142     0.007261    -0.005666     0.000159     0.013063
1.374000     0.016217    -0.012266    -0.005204    -0.014751    -0.010156    -0.001175
1.375200     0.002719    -0.024937    -0.007204     0.014176    -0.002009     0.001439
1.376400    -0.001075    -0.007239    -0.002737    -0.007856     0.003137    -0.005488
1.377600    -0.003205    -0.001583    -0.013165    -0.018545     0.000915    -0.018438
1.378800    -0.004720    -0.025113    -0.004306    -0.003715    -0.020761     0.012016
1.380000    -0.010547     0.016569    -0.005166     0.005881    -0.001739     0.004033
1.381200    -0.004181     0.016641     0.011112    -0.014236    -0.002951    -0.017154
1.382400    -0.010303    -0.000485     0.003942    -0.012965     0.010697     0.010657
1.383600    -0.011142    -0.032853    -0.012951     0.017573     0.011149    -0.000309
1.384800    -0.011590    -0.004704    -0.014357     0.014635     0.005747    -0.006484
1.386000     0.006657     0.001514     0.007668     0.011793     0.006182    -0.005535
1.387200    -0.017297    -0.003665     0.004274    -0.017686    -0.005028    -0.008120
1.388400     0.019279     0.026396    -0.010080     0.026657    -0.001987    -0.002986
1.389600    -0.006717     0.009598     0.008232    -0.008397    -0.009794    -0.010427
1.390800    -0.010125     0.005300    -0.004245     0.000126    -0.016051     0.013624
1.392000     0.001943     0.004708    -0.000262     0.005265     0.008231     0.000994
1.393200    -0.002323     0.011526     0.009650    -0.003491    -0.011020     0.000531
1.394400     0.008630     0.009918     0.002976     0.015628     0.001107     0.001921
1.395600     0.009595     0.014115    -0.002910     0.003154     0.004432     0.015645
1.396800     0.000887     0.010481    -0.004357    -0.012895     0.008006    -0.013303
1.398000     0.009912     0.005268     0.004916    -0.014063     0.009706    -0.015010
1.399200    -0.018377    -0.005441    -0.008801    -0.006333     0.001300    -0.019945
1.400400     0.002453    -0.000966    -0.009470    -0.007833     0.015841     0.012720
1.401600     0.007362    -0.007916    -0.004574    -0.003892     0.005719     0.012588
1.402800    -0.031848     0.000779     0.002936     0.015860     0.006426    -0.010593
1.404000    -0.000406     0.012023    -0.012865    -0.024307     0.006840    -0.000909
1.405200     0.005605    -0.001649    -0.002717    -0.001421     0.008872     0.020172
1.406400     0.007053    -0.011666     0.009051    -0.003112     0.012250    -0.000978
1.407600    -0.004750     0.008054     0.001058     0.000163    -0.010688    -0.012604
1.408800    -0.023130    -0.010768    -0.007361     0.020382     0.019359     0.021077
1.410000     0.002239    -0.002466     0.018469    -0.012683    -0.010706     0.010846
1.411200    -0.000001     0.014376    -0.002812    -0.004390     0.025803     0.001041
1.412400     0.009704    -0.012407    -0.017718    -0.007136     0.006060    -0.000994
1.413600     0.003537     0.012908     0.006628     0.006443     0.012154     0.006741
1.414800     0.002600    -0.001579     0.005687    -0.000268     0.007076     0.010832
1.416000    -0.008862     0.013641     0.004216    -0.006358     0.021425     0.001200
1.417200    -0.006985     0.017274    -0.012992    -0.004127    -0.003314    -0.000938
1.418400    -0.003445    -0.001407     0.003833     0.006313    -0.003999     0.010636
1.419600     0.002270    -0.004438    -0.002283     0.000912    -0.003166    -0.004018
1.420800    -0.011074     0.011170     0.001019     0.005133    -0.010970    -0.007169
1.422000     0.002064     0.018970    -0.014638     0.009435     0.001725     0.017097
1.423200     0.015826    -0.002107    -0.009276    -0.013426    -0.005429    -0.004011
1.424400     0.009574     0.006347     0.009003     0.013089    -0.000851     0.000894
1.425600    -0.009222    -0.004716    -0.007143     0.021009     0.007513    -0.002247
1.426800    -0.006541     0.023637    -0.004774     0.003994    -0.028667    -0.001602
1.428000    -0.018989     0.002647    -0.012926    -0.010415    -0.011847    -0.004567
1.429200    -0.008809    -0.000799     0.004807     0.008519     0.002454     0.006279
1.430400    -0.028295     0.010951     0.013462    -0.001167    -0.021519    -0.014653
1.431600    -0.006367     0.004414     0.020609     0.010478     0.012122    -0.025418
1.432800    -0.001475    -0.010990    -0.000591     0.003865     0.002059     0.013022
1.434000     0.000139    -0.004490     0.024864     0.011427     0.002685    -0.006393
1.435200     0.014030    -0.001755     0.005567     0.001271     0.000806     0.007815
1.436400     0.000610    -0.014581     0.023834    -0.002095    -0.010544    -0.000045
1.437600     0.008719     0.010986     0.001965     0.002152     0.003397     0.007330
1.438800    -0.003469     0.011430     0.002842     0.001907     0.007845     0.009101
1.440000    -0.000569    -0.019306     0.012255     0.003306    -0.004277    -0.016175
1.441200     0.006019     0.007733    -0.013819    -0.011377    -0.005002     0.014145
1.442400    -0.005083    -0.010653    -0.009215     0.001032    -0.005294    -0.006093
1.443600     0.006365     0.000431    -0.003464    -0.007058    -0.004207    -0.000480
1.444800    -0.004962    -0.002590     0.006930     0.000540    -0.004005    -0.020607
1.446000     0.016585    -0.000701     0.008834    -0.019200     0.004597     0.013846
1.447200     0.005098    -0.008687    -0.004711    -0.004153     0.002840     0.004489
1.448400    -0.007726     0.011938    -0.001263     0.010655    -0.008167     0.000690
1.449600     0.007721    -0.003195    -0.001181     0.001729    -0.007179    -0.003623
1.450800    -0.001017     0.004204     0.006632    -0.014148    -0.004422    -0.012665
1.452000    -0.005939     0.004811     0.006897     0.002609    -0.009122    -0.008897
1.453200    -0.028213     0.005864    -0.002154    -0.005880     0.005607    -0.001869
1.454400     0.002248    -0.003587    -0.009196    -0.000952    -0.002662     0.009608
1.455600    -0.014824    -0.000410    -0.002926     0.005558     0.008260     0.008937
1.456800     0.005445     0.002813     0.006279    -0.012077     0.002212    -0.005271
1.458000    -0.004133     0.009105     0.009681    -0.002719     0.008278    -0.013791
1.459200     0.009189     0.005898     0.001947     0.019125    -0.005225     0.004110
1.460400     0.003117    -0.025169    -0.002822     0.002499     0.019833    -0.004767
1.461600     0.008847     0.004701    -0.015433     0.001260     0.000560    -0.001556
1.462800     0.000579    -0.006660    -0.000526    -0.012517    -0.002246     0.002724
1.464000     0.003819    -0.011514     0.002356     0.007419     0.008683     0.007272
1.465200     0.007499    -0.034678     0.005505     0.009162     0.000515    -0.002113
1.466400     0.002154    -0.000709    -0.012300     0.023539     0.008141    -0.005359
1.467600     0.007975    -0.001433    -0.006779    -0.017160     0.000487     0.004654
1.468800     0.011099     0.013287    -0.012372     0.009802    -0.012293     0.011143
1.470000     0.002217     0.000110    -0.006588    -0.014024    -0.013880    -0.003589
1.471200     0.006851    -0.001661    -0.001833    -0.004219    -0.008877    -0.002551
1.472400     0.011906     0.003526    -0.005125    -0.002827    -0.008152    -0.010521
1.473600     0.012912    -0.002688    -0.000342     0.005389    -0.026284    -0.015720
1.474800    -0.008227     0.009518     0.015903    -0.002513    -0.016236     0.004100
1.476000     0.006943    -0.001028     0.008506    -0.006928     0.003401     0.009541
1.477200     0.014064     0.010273    -0.019827    -0.004945     0.003766    -0.002727
1.478400     0.004625     0.011714     0.002811     0.004597     0.002393    -0.005864
1.479600    -0.006600     0.015888     0.010415     0.008199    -0.006020     0.002531
1.480800     0.001959    -0.006221    -0.003626     0.013073     0.003400    -0.002399
1.482000     0.014179    -0.002092    -0.004981     0.007564     0.001624    -0.000417
1.483200    -0.013909    -0.006130    -0.004185     0.010797    -0.023631     0.010075
1.484400    -0.000601     0.003583    -0.009976     0.002274    -0.011004    -0.000103
1.485600     0.005489     0.002648     0.001164     0.010800     0.001503     0.007424
1.486800    -0.008470    -0.001704    -0.012777    -0.002148     0.009123    -0.011310
1.488000    -0.013706     0.008425     0.008582    -0.009746     0.000335     0.004055
1.489200     0.009923    -0.015715     0.000072    -0.001540     0.014736    -0.003049
1.490400     0.014208     0.007219    -0.003847     0.006352     0.002567    -0.012020
1.491600    -0.001080     0.002366     0.006448     0.007961    -0.005448    -0.001893
1.492800     0.006175     0.003537     0.001920     0.008012     0.009205     0.001403
1.494000    -0.002775    -0.000970     0.006646     0.030031     0.004137    -0.001697
1.495200     0.007957    -0.008326     0.010371    -0.003427     0.006207    -0.008724
1.496400     0.023216    -0.000018    -0.011725    -0.000678     0.009118    -0.004212
1.497600     0.007173    -0.013400     0.008506     0.008345     0.002144     0.001405
1.498800    -0.001928    -0.003040    -0.001765    -0.011467    -0.001382     0.005514
1.500000    -0.013406    -0.018133     0.009864     0.000070     0.001680     0.007716
1.501200     0.001952     0.003664     0.002102     0.001620    -0.004018    -0.008095
1.502400     0.004166    -0.009826     0.002681     0.004410     0.010091     0.012210
1.503600     0.017621     0.014928     0.005211     0.008731     0.001792     0.002627
1.504800    -0.001718     0.004558    -0.009093    -0.002087    -0.006336     0.001363
1.506000     0.001346     0.001423     0.002205     0.002755     0.019009     0.006437
1.507200     0.010032     0.002730     0.008584     0.000411    -0.003869     0.004079
1.508400     0.016993    -0.005119    -0.007594     0.000786     0.000137    -0.006765
1.509600     0.001961    -0.004899     0.012580     0.007952    -0.002598     0.001221
1.510800     0.005365     0.000004     0.012707     0.011752    -0.002956     0.009563
1.512000    -0.000217     0.004237     0.010802     0.004436    -0.001537    -0.010589
1.513200     0.001187     0.012103    -0.003719     0.001431    -0.003144     0.000082
1.514400     0.010384     0.004500     0.005380     0.004432    -0.001607     0.001573
1.515600    -0.016536     0.010074    -0.006074    -0.002659     0.018077    -0.003147
1.516800     0.008134    -0.005092    -0.001218    -0.003627    -0.020158     0.008982
1.518000    -0.000267    -0.011224    -0.003594    -0.004483     0.003587    -0.006335
1.519200    -0.016620     0.006871    -0.005821    -0.005506     0.003640    -0.013634
1.520400    -0.004278     0.008022    -0.008765     0.012309     0.015686     0.007512
1.521600    -0.002642     0.010101    -0.003949     0.005624    -0.007581    -0.016285
1.522800    -0.005645    -0.003876    -0.004509     0.006034     0.005705     0.003915
1.524000    -0.002780    -0.000017     0.001735     0.004287    -0.024693    -0.003336
1.525200     0.000701     0.003001    -0.001900    -0.003748     0.008794     0.008138
1.526400     0.010762    -0.004317     0.003051    -0.008094     0.002269    -0.007508
1.527600     0.009204    -0.013534     0.003736     0.004740     0.003625     0.011723
1.528800    -0.003344    -0.002000    -0.005961    -0.003119     0.007214     0.006891
1.530000     0.008815     0.008082    -0.001216    -0.000024    -0.010830    -0.006082
1.531200    -0.001262     0.010241    -0.009272     0.002038     0.010979     0.005810
1.532400     0.010908    -0.002607     0.002128     0.009134     0.003512    -0.013093
1.533600     0.006335    -0.009254     0.003822    -0.003703     0.000452    -0.004251
1.534800     0.000230    -0.008354     0.003514     0.005232    -0.002823    -0.003343
1.536000    -0.003856     0.015150    -0.018058    -0.007781     0.000868    -0.001124
1.537200    -0.004040     0.002138     0.003678    -0.005929    -0.009126     0.006628
1.538400     0.003945     0.009935    -0.006680     0.004020    -0.005366     0.012631
1.539600    -0.014441     0.016423    -0.009283    -0.005913    -0.007116    -0.001691
1.540800     0.002157     0.008714    -0.002284     0.003667    -0.008040     0.016044
1.542000     0.002028    -0.006950     0.003355     0.000687     0.001182     0.003323
1.543200     0.003564    -0.011783    -0.004888     0.010225    -0.002679     0.002042
1.544400    -0.009766     0.003221    -0.011591    -0.000205    -0.004238     0.003441
1.545600     0.001757     0.014356    -0.000379    -0.004290     0.000824     0.014217
1.546800    -0.003163     0.003963     0.008047     0.005537     0.007833     0.006511
1.548000    -0.002050    -0.010643    -0.005572     0.001677     0.005058     0.005254
1.549200    -0.006851    -0.008616     0.003342     0.001086     0.005752     0.004261
1.550400    -0.005770    -0.003077    -0.008905     0.005043     0.007717    -0.016926
1.551600     0.005135    -0.002463    -0.010425     0.001573     0.007330    -0.009963
1.552800     0.014511     0.010202     0.000645     0.006519     0.000004    -0.000137
1.554000     0.000972    -0.000326    -0.009284     0.008568    -0.008648    -0.009996
1.555200    -0.005101    -0.004050     0.004897    -0.002157     0.013422     0.023574
1.556400    -0.003473    -0.001340     0.012179     0.000176     0.002397     0.000539
1.557600    -0.014363     0.002057     0.005730    -0.001270     0.003091    -0.008376
1.558800    -0.003165     0.015285     0.000659     0.003391     0.003579    -0.002956
1.560000    -0.007948    -0.000424    -0.003198    -0.006481    -0.002122     0.004462
1.561200     0.003292     0.006548    -0.006531    -0.005046    -0.003452     0.004263
1.562400    -0.001175     0.000214     0.005773     0.001641    -0.001803     0.001089
1.563600    -0.000110    -0.015497    -0.000624    -0.007716    -0.002696    -0.008110
1.564800     0.005758     0.011658     0.001667     0.002509    -0.000960     0.002614
1.566000     0.020985    -0.000343     0.006317     0.005923    -0.001527     0.002893
1.567200    -0.009451    -0.002959     0.005094     0.003275     0.005531    -0.013852
1.568400    -0.004254    -0.000492     0.009895    -0.006225     0.007888    -0.010081
1.569600     0.002227    -0.005080    -0.012517     0.003170    -0.000302    -0.004851
1.570800     0.000318    -0.002170    -0.001980    -0.008439     0.000846    -0.009619
1.572000    -0.002282    -0.003521     0.000180     0.003493     0.005967    -0.003261
1.573200     0.001837    -0.000915     0.004150     0.000212     0.011460     0.001424
1.574400    -0.008699    -0.008601    -0.001685    -0.000636    -0.005129    -0.001169
1.575600    -0.006003    -0.000646    -0.002298     0.003365     0.003212    -0.007262
1.576800     0.002073    -0.004000    -0.006796    -0.004229    -0.009643     0.001609
1.578000    -0.007063     0.005395    -0.002293    -0.010244    -0.000418     0.002144
1.579200    -0.005841    -0.007969     0.008150    -0.000799     0.001584     0.000244
1.580400     0.003242     0.011695     0.002000     0.006956     0.010758    -0.007796
1.581600    -0.001006    -0.003235    -0.000658    -0.002756    -0.000518     0.003252
1.582800     0.002289    -0.000459    -0.012891     0.003827    -0.005238     0.000799
1.584000     0.000493     0.000678     0.003327    -0.002793     0.000583    -0.002006
1.585200     0.002434     0.007158     0.001224     0.001476    -0.002891     0.004268
1.586400    -0.001358    -0.002899     0.004214     0.000808    -0.005238    -0.013389
1.587600    -0.012340    -0.002684     0.003787     0.007077    -0.002075    -0.002961
1.588800    -0.010072     0.000081    -0.004718    -0.003835     0.000521    -0.006308
1.590000    -0.000244     0.000559     0.003205    -0.003045     0.004352     0.012644
1.591200    -0.002987    -0.009937     0.000850     0.007993     0.003997    -0.000511
1.592400     0.011908    -0.006949    -0.000470     0.000703     0.002368    -0.009069
1.593600    -0.001604    -0.003258    -0.005625    -0.005128     0.000370    -0.003975
1.594800     0.000343    -0.003138    -0.002760    -0.002441     0.007588    -0.001720
1.596000     0.004154     0.005210     0.000646    -0.005184     0.002449     0.004687
1.597200    -0.001981    -0.002099     0.002833    -0.004870    -0.005353     0.005983
1.598400     0.009927    -0.010559    -0.003934    -0.005652     0.006981     0.006735
1.599600     0.009189     0.008483    -0.007637     0.008723    -0.009859     0.003073
1.600800    -0.003968    -0.003833    -0.002247     0.010401    -0.002489     0.008201
1.602000    -0.001687     0.003883     0.002940     0.003563     0.004030    -0.000309
1.603200    -0.003252    -0.000543    -0.007280    -0.001880    -0.007219    -0.000693
1.604400    -0.010473     0.009629     0.002659     0.003055    -0.009080    -0.001807
1.605600    -0.000851    -0.003113     0.009586     0.005253    -0.005774     0.006979
1.606800     0.001395    -0.008397     0.000469    -0.003566     0.006219    -0.007236
1.608000     0.008256     0.008704     0.010026    -0.002124     0.005573     0.006250
1.609200    -0.007465    -0.002155    -0.002485     0.009285     0.004321    -0.002520
1.610400    -0.004482     0.002432    -0.007998    -0.002312     0.005247    -0.002339
1.611600     0.006790     0.003975     0.008767     0.001519     0.000666    -0.002845
1.612800    -0.005461    -0.002632     0.004329    -0.010577    -0.007051     0.001501
1.614000    -0.006130    -0.000255     0.004850     0.006170     0.005990     0.005713
1.615200     0.004114    -0.000139     0.001181     0.006555    -0.005019     0.013007
1.616400     0.005584    -0.001012     0.017199     0.003669    -0.004518    -0.003255
1.617600    -0.004622     0.002634     0.003355     0.000832     0.004969    -0.005750
1.618800    -0.002458     0.005726    -0.000092     0.004534     0.001498    -0.003570
1.620000     0.014346     0.003315    -0.000635     0.004451    -0.017083    -0.005029
1.621200     0.003314     0.000769     0.003708    -0.008940     0.000154    -0.004404
1.622400    -0.012797    -0.005847     0.005134     0.004624     0.002135    -0.000421
1.623600     0.000415    -0.011132    -0.001968    -0.000018    -0.000899    -0.006245
1.624800     0.001810    -0.006256     0.007618     0.000411     0.003041     0.006708
1.626000     0.001963     0.008208     0.000301     0.005048    -0.002799    -0.002372
1.627200    -0.011534    -0.010181    -0.004398    -0.010101     0.005108     0.000036
1.628400    -0.000271    -0.000209     0.001634     0.006536    -0.001261     0.000555
1.629600     0.008944    -0.005300    -0.001994    -0.003080    -0.004425    -0.001888
1.630800     0.009126    -0.000558     0.002179    -0.000705    -0.002059    -0.005439
1.632000     0.008783     0.000028    -0.002881    -0.008127    -0.002146     0.008965
1.633200    -0.002913     0.005971     0.006788    -0.004536    -0.005583     0.006355
1.634400     0.001412     0.015989    -0.004582    -0.004055    -0.005578    -0.001490
1.635600    -0.005938    -0.007113     0.000416     0.006703     0.008557    -0.002651
1.636800     0.003392    -0.002495     0.001569    -0.002716    -0.005120    -0.005883
1.638000     0.001289    -0.001750
##END NTUPLES=NMR FID
##END=
