68
Properties=species:S:1:pos:R:3 Co(acac)(Et2P-propylene-P(p-Tol)2)+;=T plausible=T initial=T 3D=T XYZ=T geometry,=T cationic=T Co(II)=T precursor-like=T complex=T pbc="F F F" explicit_bonds=b0_2_1,b0_3_1,b0_4_1,b2_54_1,b3_5_1,b4_7_1,b5_6_1,b5_8_1,b6_7_2,b6_10_1,b7_9_1,b8_11_1,b8_12_1,b8_13_1,b9_14_1,b9_15_1,b9_16_1,b17_18_1,b17_20_1,b17_21_1,b18_22_1,b18_23_1,b19_24_1,b25_40_1,b26_28_1,b26_29_1,b27_30_1,b27_31_1,b27_32_1,b33_34_1,b33_35_1,b33_36_1,b34_37_1,b34_38_1,b34_39_1,b40_41_1,b40_45_2,b41_42_2,b41_46_1,b42_43_1,b42_47_1,b43_44_2,b43_50_1,b44_45_1,b44_48_1,b45_49_1,b50_51_1,b50_52_1,b50_53_1,b54_55_2,b54_59_1,b55_56_1,b55_60_1,b56_57_2,b56_61_1,b57_58_1,b57_64_1,b58_59_2,b58_62_1,b59_63_1,b64_65_1,b64_66_1,b64_67_1
Co       0.00000000       0.00000000       0.00000000
P        2.15943209       0.00000000       0.04952826
P        0.00000000       2.18000000      -0.05000000
O       -1.88000000       0.00000000       0.05000000
O        0.00000000      -1.88000000      -0.05000000
C       -2.75000000      -0.85000000       0.05000000
C       -2.00000000      -2.00000000       0.00000000
C       -0.85000000      -2.75000000      -0.05000000
C       -4.20000000      -0.65000000       0.10000000
C       -0.65000000      -4.20000000      -0.10000000
H       -2.25000000      -2.25000000       1.05000000
H       -4.65000000      -1.20000000       0.90000000
H       -4.50000000       0.40000000       0.25000000
H       -4.70000000      -1.00000000      -0.82500000
H       -1.20000000      -4.65000000      -0.90000000
H        0.40000000      -4.50000000      -0.25000000
H       -1.00000000      -4.70000000       0.82500000
C        2.05000000       1.71000000       0.62000000
C        1.19000000       2.54000000       1.52000000
C        0.54000000       3.54000000       0.58000000
H        3.02000000       2.13000000       0.93000000
H        1.60000000       1.63000000      -0.38000000
H        1.83000000       3.08000000       2.23000000
H        0.39000000       1.94000000       1.98000000
H        1.29000000       4.30000000       0.31000000
H       -0.35000000       4.03000000       0.99000000
C        3.62000000      -0.85000000       0.85000000
C        4.92000000      -1.04000000       0.06000000
H        3.85000000      -0.43000000       1.84000000
H        3.30000000      -1.90000000       1.02000000
H        5.72000000      -1.59000000       0.58000000
H        5.27000000      -0.06000000      -0.30000000
H        4.76000000      -1.61000000      -0.86000000
C        2.90000000      -1.10000000      -1.30000000
C        4.25000000      -0.70000000      -1.93000000
H        3.02000000      -2.19000000      -1.17000000
H        2.14000000      -0.89000000      -2.07000000
H        4.76000000      -1.49000000      -2.49000000
H        4.93000000      -0.38000000      -1.13000000
H        4.12000000       0.16000000      -2.60000000
C       -0.85000000       3.60000000       0.90000000
C       -2.15000000       3.82000000       1.35000000
C       -2.90000000       4.92000000       0.93000000
C       -2.35000000       5.83000000       0.02000000
C       -1.05000000       5.62000000      -0.43000000
C       -0.30000000       4.52000000      -0.01000000
H       -2.58000000       3.11000000       2.06000000
H       -3.92000000       5.09000000       1.29000000
H       -0.62000000       6.33000000      -1.14000000
H        0.72000000       4.35000000      -0.37000000
C       -3.15000000       7.02000000      -0.42000000
H       -4.19000000       6.72000000      -0.63000000
H       -2.74000000       7.45000000      -1.35000000
H       -3.15000000       7.80000000       0.35000000
C       -1.05000000       2.90000000      -1.35000000
C       -1.10000000       3.50000000      -2.62000000
C       -2.15000000       3.38000000      -3.54000000
C       -3.15000000       2.62000000      -3.19000000
C       -3.10000000       2.02000000      -1.92000000
C       -2.05000000       2.14000000      -1.00000000
H       -0.33000000       4.10000000      -2.91000000
H       -2.19000000       3.85000000      -4.53000000
H       -3.87000000       1.43000000      -1.63000000
H       -2.01000000       1.67000000      -0.01000000
C       -4.28000000       2.50000000      -4.18000000
H       -5.16000000       1.88000000      -3.96000000
H       -3.95000000       2.27000000      -5.20000000
H       -4.60000000       3.55000000      -4.13000000
