38
0 1 Before single point calculation
N -1.185843578 -0.013603930 0.002508872
N 2.825135689 -0.024808072 0.000057331
N 0.789149414 -1.200888961 0.005125711
N 0.793550262 1.159125220 -0.000497559
N 2.749356545 2.332723409 -0.006186272
N 4.826164230 1.213770351 -0.006210181
C -2.021374019 -1.139335881 -0.000029391
C -2.002147000 1.128568902 0.002607261
C -3.365375611 -0.715141447 -0.002086731
C -3.352771660 0.725765480 -0.000062591
C 0.169444906 -0.026339151 0.002521403
C -1.708507990 -2.488182235 -0.001149140
C -1.666473245 2.472381750 0.005685030
C -4.398463589 -1.639395188 -0.005424162
C -4.371800744 1.665676887 -0.000048970
C 2.118102469 -1.206811052 0.004213801
C 2.101796943 1.178305557 -0.002169283
C -2.753825586 -3.397772434 -0.004332771
C -2.698819116 3.396895330 0.005516673
C -4.080438772 -2.984805925 -0.006472171
C -4.032140784 3.005654299 0.002632699
C 4.202610045 0.026029821 -0.001798689
C 2.841151413 -2.403594961 0.007391913
C 4.907995289 -1.173046972 0.001127110
C 4.220408490 -2.375360848 0.005787569
C 4.070357377 2.283322986 -0.008143561
H -0.684324723 -2.816573581 0.000804159
H -0.637735460 2.787338723 0.007741810
H -5.426327298 -1.310428401 -0.006912282
H -5.404660109 1.352331681 -0.002748398
H -2.528566103 -4.453885648 -0.004834918
H -2.456065248 4.448853656 0.008211370
H -4.868344445 -3.723135551 -0.009249742
H -4.808463186 3.756369357 0.002294698
H 2.284561428 -3.324300608 0.011204920
H 5.982343986 -1.121730722 0.000120308
H 4.772035621 -3.303200660 0.008621969
H 4.581165117 3.237763821 -0.011672109
