84
rdkit_etkdg_mmff_conf_3
C -14.14403434 -1.43906111 -0.93329106
C -13.91588171 0.02265805 -1.33290954
C -15.13220042 0.84907544 -0.88805491
C -13.74050317 0.18149602 -2.84689429
O -12.79674006 0.59499660 -0.60978343
C -11.54667312 0.09158816 -0.76664087
O -11.19128985 -0.82900136 -1.48460576
N -10.63783647 0.79246113 0.05794358
C -10.95240796 1.84659781 0.90869238
C -9.81901102 2.26251611 1.56155935
C -8.74832225 1.45302990 1.11383228
C -7.37352639 1.41238527 1.42984859
C -6.51937086 0.48354549 0.80904537
C -5.09272834 0.43542712 1.14983721
C -4.65681803 0.22129041 2.46047031
C -3.29139284 0.16565058 2.75081474
C -2.37164536 0.32784441 1.71887919
C -0.92402685 0.26901297 1.95397422
C -0.21251940 0.33383601 3.13860506
N 1.15977655 0.20958178 3.04429963
C 1.51416672 0.06437900 1.77838804
C 2.90702022 -0.11650224 1.32174380
C 3.93579854 -0.26264208 2.24755052
C 5.24155785 -0.45193073 1.79162586
C 5.51356129 -0.48959210 0.42042318
C 6.87443304 -0.70075689 -0.09557358
C 7.95053843 0.06252018 0.36953296
C 9.25858065 -0.12769307 -0.09959350
C 9.49855960 -1.11974771 -1.06902762
C 8.44017168 -1.89773330 -1.55769418
C 8.96943041 -2.79858616 -2.51140958
C 10.31724721 -2.56403984 -2.59260741
N 10.67054506 -1.54324379 -1.71656739
C 12.00201576 -1.08909585 -1.57571131
O 12.89905739 -1.58158592 -2.24335163
O 12.09563992 -0.10517411 -0.65295945
C 13.37928926 0.50196090 -0.35695609
C 13.95093978 1.21645799 -1.58655927
C 13.07728287 1.55015866 0.72492365
C 14.36158927 -0.52532714 0.21674069
C 7.13323821 -1.68321252 -1.06692224
C 4.41677924 -0.32319328 -0.42473867
N 3.13629174 -0.14242892 -0.01419554
S 0.19975207 0.07452674 0.66433615
N -2.76390764 0.54427245 0.44257269
C -4.09603458 0.59141623 0.19025661
C -7.06447894 -0.39794319 -0.13129220
C -8.42629533 -0.38258684 -0.45907586
C -9.26268111 0.55251988 0.17594477
H -14.18080142 -1.54193471 0.15699457
H -13.33537545 -2.08800703 -1.28213121
H -15.07978220 -1.82564788 -1.35213401
H -16.05546386 0.50432678 -1.36622279
H -15.26347548 0.79439995 0.19904726
H -14.99265718 1.90921791 -1.12993454
H -13.49996707 1.21994287 -3.10387919
H -14.64918740 -0.10978188 -3.38555002
H -12.92036299 -0.43421250 -3.22944465
H -11.96934598 2.21054673 0.97660286
H -9.76572374 3.06474760 2.28600243
H -6.97730864 2.11891186 2.15552731
H -5.37789188 0.07751809 3.26198508
H -2.97476766 -0.01934403 3.77089326
H -0.64563889 0.46814309 4.12202003
H 3.72650866 -0.24203337 3.31293655
H 6.03920090 -0.58724479 2.51784640
H 7.78214020 0.84147878 1.11282352
H 10.05168837 0.49697854 0.29795488
H 8.42211412 -3.53975508 -3.07937105
H 11.07983204 -3.03742454 -3.19909397
H 14.83684579 1.80702957 -1.32913167
H 13.20376739 1.88429003 -2.03008262
H 14.24420646 0.51071729 -2.36966532
H 13.97896075 2.08823630 1.03477411
H 12.34493149 2.28200708 0.36481597
H 12.63448419 1.07897521 1.61014044
H 14.66908632 -1.26073169 -0.53302147
H 13.90096362 -1.08722444 1.03718492
H 15.26971629 -0.04143453 0.59258219
H 6.32651970 -2.30762282 -1.44478977
H 4.53904410 -0.32242767 -1.50544047
H -4.34585391 0.77296323 -0.85265320
H -6.42900151 -1.13581165 -0.62005463
H -8.81034189 -1.08991945 -1.18941005
