85
rdkit_etkdg_mmff_conf_1
C -11.77988827 -2.70515506 -0.87854417
C -12.30026955 -1.26666905 -0.77870526
C -13.58182048 -1.26393803 0.06831929
C -12.62261130 -0.67936133 -2.15719025
O -11.37347210 -0.42348409 -0.04900991
C -10.12133415 -0.20939290 -0.52701538
O -9.62566220 -0.64009156 -1.55607406
N -9.39981620 0.61877812 0.36236240
C -9.87401149 1.13861116 1.56177346
C -8.88702369 1.88100476 2.16105332
C -7.75209270 1.84235601 1.31615709
C -6.46293758 2.40972894 1.40631785
C -5.50969694 2.20084677 0.39379973
C -4.16567867 2.79562993 0.49338028
C -4.00244984 4.17427449 0.69305455
C -2.73143972 4.73673720 0.79475026
C -1.60116636 3.92584224 0.69533278
C -1.71655931 2.54181765 0.48789333
C -0.48624300 1.73570075 0.38835860
N 0.71258714 2.16404445 0.73341627
N 1.69917212 1.22671410 0.51711578
C 1.23720298 0.10352635 0.00033301
C 2.07667413 -1.06065040 -0.34407153
C 1.57808481 -2.22041875 -0.95591636
C 2.42509497 -3.28653853 -1.26722806
C 3.78623115 -3.21128093 -0.97306379
C 4.32839204 -2.07302522 -0.36062245
C 5.76681143 -1.98912792 -0.04904997
C 6.52933757 -0.88670107 -0.44877804
C 7.89812685 -0.78262530 -0.16219177
C 8.52710972 -1.82112670 0.54971589
C 7.79028364 -2.94010745 0.96154501
C 8.67028680 -3.80943206 1.64810242
C 9.90834872 -3.22186918 1.64757073
N 9.85015596 -2.00124512 0.98313200
C 10.97880696 -1.16353101 0.82964976
O 12.06271274 -1.49254753 1.28698787
O 10.67148182 -0.03689554 0.14922002
C 11.68802529 0.96463208 -0.11094394
C 12.23252658 1.55638445 1.19376841
C 10.95816969 2.07162704 -0.88629493
C 12.80675997 0.40277510 -0.99465498
C 6.41287787 -3.01656848 0.65985230
C 3.45533731 -1.01172424 -0.05465642
S -0.46738156 0.13360771 -0.23747165
C -3.00993264 1.99522864 0.39458460
C -5.87248314 1.41697678 -0.70752130
C -7.14446108 0.84042213 -0.82243444
C -8.07981117 1.06115335 0.20411970
H -11.46673453 -3.07489519 0.10457149
H -12.54517000 -3.37959299 -1.27863480
H -10.90709405 -2.77666092 -1.53303343
H -14.36505424 -1.88698248 -0.37723845
H -13.38126704 -1.62921442 1.08290068
H -13.97260781 -0.24484737 0.17838842
H -11.75912670 -0.71320147 -2.82817864
H -12.91180446 0.37422149 -2.07321626
H -13.43703069 -1.22801061 -2.64278654
H -10.88357069 0.92672562 1.88900575
H -8.97274682 2.39853157 3.10791036
H -6.20924367 3.00622373 2.27953698
H -4.87273275 4.82459199 0.76228356
H -2.61958396 5.80678125 0.94989543
H -0.61708782 4.38653448 0.77864077
H 0.52567634 -2.32210106 -1.20789877
H 2.02420844 -4.17681845 -1.74639216
H 4.42922858 -4.04868425 -1.23852058
H 6.06078948 -0.07788480 -1.00873495
H 8.43564395 0.09779363 -0.49765977
H 8.42243635 -4.76272717 2.09727485
H 10.84818506 -3.55789307 2.06758965
H 12.82483697 0.82758225 1.75592187
H 12.87516489 2.42290247 1.00125474
H 11.41321267 1.86865176 1.85197361
H 10.12470311 2.47473148 -0.29888531
H 10.52129143 1.67617603 -1.81096769
H 11.62886427 2.89747662 -1.14582717
H 13.40601633 -0.34572406 -0.46764433
H 13.48781215 1.19437519 -1.32601846
H 12.39075513 -0.09269026 -1.87938422
H 5.84915387 -3.88256296 0.99901658
H 3.86014415 -0.12361509 0.43288495
H -3.14334053 0.92335521 0.26157340
H -5.16007744 1.25101541 -1.51431160
H -7.38620503 0.24152374 -1.69619604
