90
rdkit_etkdg_mmff_conf_0
C 1.22167177 -3.48136846 3.12356600
C 0.51714117 -2.46771016 2.28133212
C -0.91209506 -2.35345636 2.21625257
C -1.35303939 -1.33951528 1.38654322
C -2.73713810 -0.92359994 1.09868290
C -3.71691158 -1.01099150 2.09830254
C -5.04331301 -0.63972317 1.84409265
C -5.42951188 -0.16962917 0.58163062
C -6.82041740 0.21521128 0.31405227
C -7.84246181 -0.73956299 0.32739544
C -9.17658969 -0.39826045 0.07052926
C -9.48879751 0.94583248 -0.20275785
C -8.48996254 1.92452638 -0.21896175
C -9.11188813 3.16278400 -0.50932658
C -10.45613619 2.92678006 -0.66155820
N -10.71054542 1.57123597 -0.48498933
C -11.97521411 0.94658313 -0.57237655
O -12.11245773 -0.25873986 -0.43668633
O -12.93533532 1.87561915 -0.81258287
C -14.32353838 1.47687599 -0.93875475
C -15.08766641 2.78977305 -1.16392867
C -14.52466793 0.57224554 -2.15860917
C -14.84105611 0.82304977 0.34721233
C -7.15247703 1.55233974 0.03609284
C -4.45239486 -0.08029253 -0.41891205
C -3.12634832 -0.45464397 -0.16403105
S -0.02026833 -0.51890153 0.69073057
C 1.12948218 -1.52029269 1.47353575
C 2.55822179 -1.30021817 1.21354310
C 3.15539531 -0.05426606 1.45049467
C 4.52048077 0.13924442 1.20915980
C 5.32254581 -0.90771519 0.73255876
C 6.75562732 -0.71001582 0.48611236
C 7.19845374 0.12989306 -0.54136362
C 8.56211281 0.32570410 -0.79815070
C 9.50249250 -0.33846752 0.01104428
C 9.09007361 -1.17538780 1.05360414
C 10.25228726 -1.67451890 1.68844612
C 11.33754547 -1.15045160 1.03240889
N 10.90332515 -0.33634591 -0.00809732
C 11.73146658 0.35989422 -0.91748463
O 11.27013346 1.02623808 -1.83092186
O 13.03766997 0.15824758 -0.60562288
C 14.08435477 0.75238362 -1.41492432
C 13.99768085 2.28332446 -1.41682914
C 14.07018144 0.17741692 -2.83591813
C 15.39306233 0.33316122 -0.72681589
C 7.71087698 -1.36337943 1.28397896
C 4.72110197 -2.15222375 0.49782833
C 3.35543744 -2.34529321 0.73010586
H 0.54054802 -3.92141033 3.85899632
H 2.05267173 -3.02637460 3.67178056
H 1.61157353 -4.29127110 2.50084311
H -1.58738476 -3.00337315 2.76073577
H -3.45828745 -1.35719113 3.09657804
H -5.77661549 -0.70720814 2.64788505
H -7.60527443 -1.78307200 0.53112237
H -9.94109029 -1.17046317 0.08491630
H -8.62727552 4.12713340 -0.59408140
H -11.26423480 3.61091841 -0.88714576
H -14.71794179 3.30969578 -2.05634490
H -14.93430731 3.47499260 -0.32118104
H -16.16320046 2.62020478 -1.28070535
H -14.08542514 1.02502910 -3.05439798
H -15.58601232 0.38821358 -2.35283237
H -14.04182960 -0.40163275 -2.02962644
H -14.38896311 -0.16054820 0.51512710
H -14.59568426 1.43804360 1.22089566
H -15.92811787 0.68562994 0.31547162
H -6.37711851 2.31520613 0.02868081
H -4.71926354 0.26873910 -1.41579810
H -2.40853764 -0.38648161 -0.97705291
H 2.56459834 0.77662177 1.83195369
H 4.96019000 1.11579144 1.40683513
H 6.47105767 0.64389327 -1.17099354
H 8.86865975 0.98117807 -1.60926474
H 10.28931743 -2.34242981 2.53849631
H 12.39538314 -1.29030142 1.21169602
H 13.11197366 2.64423170 -1.94919811
H 14.87430842 2.73024828 -1.89967095
H 13.92884062 2.66949789 -0.39293387
H 14.93080054 0.52770429 -3.41681546
H 13.16689647 0.46128102 -3.38299561
H 14.09049154 -0.91894670 -2.81133497
H 16.27183303 0.71701145 -1.25544536
H 15.47271105 -0.76010580 -0.67397075
H 15.42323100 0.69767959 0.30795877
H 7.38912491 -2.01157167 2.09587700
H 5.31511080 -2.98000585 0.11507138
H 2.91865244 -3.31995057 0.51966694
