56
0 1 Before single point calculation
C 4.013374396 -4.753521060 -0.360800470
C 3.862177195 -3.486910252 -0.854939516
N 4.354090615 -2.629971515 0.104627660
C 4.295895434 -1.189188861 0.091996141
C 4.354664921 -0.493598426 -1.108418603
C 4.093790633 0.855729629 -1.148520868
C 3.766072760 1.550372938 0.013834290
C 3.330964174 2.969815424 -0.047851141
C 4.187992742 4.023077042 -0.117203657
S 3.330374476 5.515091414 -0.174270144
C 1.795666521 4.728040640 -0.112968205
C 1.935896014 3.379532914 -0.047940494
C 0.806848251 2.422035589 0.001328192
C -0.498422402 2.784631964 0.140463262
S -1.501833216 1.394689158 0.158400946
C -0.087629397 0.375737509 -0.027925158
C -0.096995803 -1.078526169 -0.103108814
C 1.053845891 -1.793325643 -0.171249785
S 0.751223506 -3.481626938 -0.276569204
C -0.956113793 -3.252846424 -0.219485526
C -1.274636838 -1.932450682 -0.127901687
C -2.671233243 -1.429448812 -0.070960995
C -3.422283650 -1.288159528 -1.233994078
C -4.710463742 -0.812386104 -1.183133161
C -5.287062594 -0.465782931 0.030457012
N -6.635163562 0.042561302 0.082449105
C -7.127689138 1.028221957 0.908334850
C -8.451626855 1.175764707 0.590020231
N -8.796788900 0.321356127 -0.396089042
C -7.715070109 -0.350608081 -0.697118364
C -4.543456215 -0.610628133 1.192835806
C -3.255497417 -1.086501858 1.143875953
N 1.016073148 1.062683544 -0.094840428
C 3.751473372 0.857324615 1.222184214
C 4.014280013 -0.491307573 1.259491784
C 4.780113253 -3.452430182 1.139194828
N 4.579771744 -4.715655208 0.863033549
H 3.720481783 -5.669496504 -0.855700674
H 3.417416682 -3.196973953 -1.793057794
H 4.573782911 -1.032612586 -2.013375745
H 4.098106004 1.383801187 -2.086359310
H 5.256874175 3.940508670 -0.130523985
H 0.860726988 5.251720055 -0.130985215
H -0.860341300 3.789062670 0.231417330
H 2.030890317 -1.360204041 -0.158826677
H -1.671305012 -4.050824155 -0.253355097
H -2.974358398 -1.548649136 -2.177432384
H -5.283160542 -0.691174699 -2.085763051
H -6.561378845 1.575745739 1.644040356
H -9.142959261 1.871403652 1.045910133
H -7.676293340 -1.122559126 -1.451665327
H -4.992459679 -0.348386083 2.134651621
H -2.679017918 -1.192920085 2.046664938
H 3.483746269 1.385455976 2.121060297
H 3.947510613 -1.031622690 2.187293998
H 5.220771109 -3.100836463 2.061005812
