56
0 1 Before single point calculation
C -12.785984149 0.895804453 0.209315374
C -11.522908251 1.364860816 0.452984212
N -10.652040065 0.418900364 -0.041586952
C -9.212107137 0.455869274 -0.018864152
C -8.476649042 -0.715788361 0.097117206
C -7.103371461 -0.678531952 0.117432743
C -6.412523531 0.530324561 0.024458392
C -4.957123700 0.542759766 0.042720519
C -4.141234480 1.642025490 0.054818814
C -2.761857293 1.336916885 0.064733634
C -2.487102762 -0.003146361 0.058627681
C -1.176744005 -0.591874362 0.055943632
C -0.902756561 -1.934586541 0.036617759
N 0.403978529 -2.289659531 0.024637068
C 1.197871709 -1.243545325 0.037221300
C 2.625996286 -1.338290955 0.019291341
C 3.328521859 -2.512479222 -0.031323951
C 4.729440070 -2.344010191 -0.047734781
C 5.136946632 -1.037155181 -0.007969541
C 6.506923719 -0.548267592 -0.016494591
C 6.765568912 0.817248908 0.111451898
C 8.051809333 1.300507867 0.102937142
C 9.129436319 0.436075961 -0.034528491
N 10.478561248 0.940809833 -0.045375494
C 10.916770985 2.153326412 -0.530705140
C 12.270269321 2.187472649 -0.327468823
N 12.686269862 1.048153295 0.264800658
C 11.620126476 0.308497479 0.430667270
C 8.883108430 -0.924342941 -0.163977201
C 7.597405979 -1.410104333 -0.154924404
S 3.736607270 0.004206398 0.056351195
S 0.323576485 0.279251202 0.070139838
S -3.980002817 -0.902675310 0.050927951
C -7.160682473 1.703849196 -0.092049162
C -8.534695347 1.664289948 -0.113290660
C -11.462844304 -0.580620951 -0.564437427
N -12.731888343 -0.298600948 -0.417356223
H -13.711088436 1.390440908 0.472293112
H -11.245593061 2.282206167 0.945902573
H -8.997634567 -1.653182321 0.180978279
H -6.539968529 -1.590433695 0.208093917
H -4.512699546 2.654393910 0.059435871
H -1.986472807 2.087005405 0.071945071
H -1.680291541 -2.684756690 0.024377590
H 2.840977052 -3.474701200 -0.059804744
H 5.413639573 -3.176507104 -0.085684900
H 5.935458801 1.493006918 0.219303485
H 8.238744982 2.354149370 0.212845600
H 10.302535902 2.909107275 -0.991560040
H 12.934742568 2.997468922 -0.595442579
H 11.632304997 -0.667526015 0.894395877
H 9.716170312 -1.594593377 -0.283113228
H 7.427297803 -2.466269276 -0.262842662
H -6.653911782 2.648797200 -0.174185755
H -9.102961713 2.572015544 -0.215221347
H -11.098895684 -1.476218429 -1.046308312
