58
0 1 Before single point calculation
C 11.348103179 -1.236859806 0.195184755
N 10.520869142 -0.080590511 -0.045396950
C 11.138207900 1.222436671 -0.024871440
C 9.154407030 -0.194606822 -0.015232441
C 8.524589981 -1.445504530 0.081475193
C 7.153784743 -1.561516143 0.080986672
C 6.325437419 -0.439269056 -0.011977123
C 4.887664447 -0.553902025 -0.013483002
C 4.107257810 -1.683785447 -0.019847539
C 2.730567952 -1.423061296 -0.020928248
C 2.433576720 -0.086017252 -0.013935199
C 1.131867251 0.517555175 -0.009621638
C 0.868848778 1.865290546 0.012893440
S -0.819534588 2.162112842 0.015447869
C -1.069352284 0.411783769 -0.015603557
C -2.369606684 -0.161074476 -0.028237622
C -2.681358796 -1.500419908 -0.064461566
C -4.056395126 -1.744041923 -0.065565358
C -4.825433983 -0.602218938 -0.028546562
C -6.260430300 -0.476038498 -0.013747140
C -6.874344418 0.774022591 0.113300762
C -8.241335921 0.910438600 0.133969152
C -9.084747427 -0.207415745 0.023907337
N -10.445787442 -0.078181023 0.047557727
C -11.298202130 -1.237592702 0.126029885
C -11.065396173 1.219752370 -0.053946410
C -8.468314032 -1.462532103 -0.107211998
C -7.099455278 -1.590074627 -0.124222207
S -3.807758405 0.810320519 0.005947582
N 0.025724040 -0.271773047 -0.025388532
S 3.881663988 0.871681260 -0.008211963
C 6.951804089 0.806508045 -0.100060328
C 8.320954538 0.931602072 -0.101256875
H 11.151461353 -1.682465123 1.177124268
H 12.395717369 -0.948107634 0.155881576
H 11.180075729 -1.996880466 -0.572448127
H 10.884736005 1.781758017 0.883218670
H 10.826320287 1.807806688 -0.893329651
H 12.219205529 1.112110589 -0.067475124
H 9.110561934 -2.346473954 0.159615212
H 6.717625954 -2.545260093 0.161976135
H 4.510343275 -2.680408263 -0.029365480
H 1.965494230 -2.177817946 -0.026737352
H 1.571584921 2.673120934 0.028508290
H -1.922936780 -2.261043893 -0.088347177
H -4.472094384 -2.735050366 -0.087490765
H -6.254349115 1.654446375 0.206150792
H -8.657718996 1.897100068 0.253683238
H -11.347254337 -1.775302624 -0.828193149
H -12.305108206 -0.926889027 0.396964127
H -10.940675849 -1.924451147 0.896394783
H -10.994618237 1.778184248 0.886906493
H -12.117937890 1.099419836 -0.302892064
H -10.597636415 1.809075662 -0.845959169
H -9.066114270 -2.353347208 -0.213245514
H -6.671903512 -2.574548446 -0.235654589
H 6.340847799 1.695539925 -0.168158569
H 8.742413511 1.920843944 -0.169086170
58
step=1 E=-2401.195010289658 Eh
C 11.3481027548 -1.2368597913 0.1951847494
N 10.5208692739 -0.0805905089 -0.0453969487
C 11.1382076569 1.2224367013 -0.0248714400
C 9.1544066069 -0.1946068191 -0.0152324401
C 8.5245895162 -1.4455045493 0.0814751926
C 7.1537845216 -1.5615161328 0.0809866721
C 6.3254373132 -0.4392690503 -0.0119771218
C 4.8876643022 -0.5539020583 -0.0134830014
C 4.1072578503 -1.6837854219 -0.0198475374
C 2.7305680294 -1.4230612283 -0.0209282496
C 2.4335765327 -0.0860172476 -0.0139351992
C 1.1318672808 0.5175551511 -0.0096216376
C 0.8688487705 1.8652905435 0.0128934398
S -0.8195345716 2.1621127088 0.0154478681
C -1.0693522219 0.4117837500 -0.0156035574
C -2.3696066704 -0.1610744679 -0.0282376209
C -2.6813588510 -1.5004199091 -0.0644615685
C -4.0563951624 -1.7440419102 -0.0655653581
C -4.8254338401 -0.6022189116 -0.0285465599
C -6.2604301418 -0.4760384895 -0.0137471402
C -6.8743444836 0.7740225586 0.1133007621
C -8.2413361849 0.9104385697 0.1339691486
C -9.0847469519 -0.2074157387 0.0239073374
N -10.4457874733 -0.0781810221 0.0475577275
C -11.2982018042 -1.2375927123 0.1260298817
C -11.0653963864 1.2197522594 -0.0539464098
C -8.4683142134 -1.4625320485 -0.1072119909
C -7.0994554214 -1.5900745886 -0.1242222018
S -3.8077583341 0.8103205010 0.0059475814
N 0.0257240398 -0.2717730381 -0.0253885308
S 3.8816638214 0.8716811916 -0.0082119625
C 6.9518042637 0.8065080014 -0.1000603302
C 8.3209541825 0.9316020492 -0.1012568687
H 11.1514612547 -1.6824650719 1.1771242727
H 12.3957165144 -0.9481075997 0.1558815620
H 11.1800759937 -1.9968804585 -0.5724481426
H 10.8847359745 1.7817579787 0.8832186306
H 10.8263200175 1.8078066528 -0.8933295984
H 12.2192046032 1.1121106189 -0.0674751216
H 9.1105615921 -2.3464739532 0.1596152088
H 6.7176257051 -2.5452600498 0.1619761277
H 4.5103431440 -2.6804082000 -0.0293654775
H 1.9654942119 -2.1778178787 -0.0267373506
H 1.5715848934 2.6731210329 0.0285082898
H -1.9229368228 -2.2610438700 -0.0883471726
H -4.4720945433 -2.7350503138 -0.0874907574
H -6.2543485621 1.6544463133 0.2061507882
H -8.6577188235 1.8971000419 0.2536832315
H -11.3472533354 -1.7753025194 -0.8281931491
H -12.3051080248 -0.9268889800 0.3969641422
H -10.9406760436 -1.9244511216 0.8963947992
H -10.9946185640 1.7781842122 0.8869064402
H -12.1179382569 1.0994198223 -0.3028920713
H -10.5976364245 1.8090755986 -0.8459591203
H -9.0661148234 -2.3533469703 -0.2132455094
H -6.6719031748 -2.5745485109 -0.2356545820
H 6.3408475621 1.6955398289 -0.1681585579
H 8.7424139854 1.9208439799 -0.1690861791
58
step=2 E=-2401.201304854951 Eh
C 11.3648501733 -1.3456535830 0.1951796479
N 10.5787907494 -0.1587005768 -0.0469971444
C 11.2207448453 1.1346904513 -0.0298466391
C 9.2062986580 -0.2355839506 -0.0171516283
C 8.5409065790 -1.4730393456 0.0817820930
C 7.1609043651 -1.5478473115 0.0812943598
C 6.3595413716 -0.4033228294 -0.0131960557
C 4.9067052069 -0.4953293573 -0.0134712665
C 4.1128187248 -1.6169382728 -0.0180453630
C 2.7297348491 -1.3371100615 -0.0184362258
C 2.4517708475 0.0042927573 -0.0127440874
C 1.1445193018 0.6261701654 -0.0083803391
C 0.8845515024 1.9743316517 0.0127332673
S -0.8054366445 2.2655831503 0.0152255472
C -1.0671760395 0.5230438448 -0.0135637717
C -2.3801109619 -0.0607660811 -0.0253277573
C -2.6771367342 -1.4023028232 -0.0599788696
C -4.0597580424 -1.6599345964 -0.0603609801
C -4.8380398289 -0.5236578045 -0.0244516674
C -6.2879872349 -0.4152263107 -0.0093980269
C -6.9520050282 0.8132227566 0.1153226924
C -8.3293967719 0.9078377725 0.1338580489
C -9.1381600937 -0.2401909612 0.0232630728
N -10.5067348169 -0.1585952713 0.0441077427
C -11.3068452528 -1.3576292755 0.1212222949
C -11.1732268283 1.1183911336 -0.0585806132
C -8.4770079274 -1.4771836687 -0.1058481657
C -7.0980449764 -1.5534228281 -0.1198522336
S -3.8288008251 0.8921116204 0.0077255425
N 0.0301640832 -0.1633586066 -0.0229312434
S 3.9139729789 0.9369127664 -0.0088672203
C 7.0227950712 0.8269385335 -0.1031058292
C 8.4015711473 0.9166451035 -0.1047026233
H 11.1520652597 -1.7880268190 1.1798365730
H 12.4257245183 -1.0924698152 0.1576574557
H 11.1738824624 -2.1049455168 -0.5737343458
H 10.9780651147 1.7058441226 0.8788743324
H 10.9219441530 1.7289285986 -0.9021543408
H 12.3033266448 1.0029269721 -0.0715685148
H 9.1046063655 -2.3947228530 0.1615477183
H 6.6953102111 -2.5244704670 0.1641209990
H 4.5083209155 -2.6241691075 -0.0268883867
H 1.9483597274 -2.0851071508 -0.0229817527
H 1.5928612120 2.7882678935 0.0273879424
H -1.9050252894 -2.1592862566 -0.0832540937
H -4.4715884523 -2.6601864689 -0.0810148834
H -6.3631583903 1.7214481787 0.2092988781
H -8.7800029440 1.8859283891 0.2524620588
H -11.3325436812 -1.9023520545 -0.8347221718
H -12.3309314449 -1.0921384232 0.3917489824
H -10.9205952582 -2.0317987224 0.8946408734
H -11.1267333723 1.6848661440 0.8836689031
H -12.2238924517 0.9596412298 -0.3107203577
H -10.7257758541 1.7282784741 -0.8523908517
H -9.0457459284 -2.3934268439 -0.2126437674
H -6.6365567990 -2.5291917460 -0.2302644854
H 6.4361584280 1.7387470203 -0.1729399896
H 8.8525872456 1.8990062198 -0.1742002307
58
step=3 E=-2401.203368590445 Eh
C 11.4651601650 -1.2001385975 0.2004554122
N 10.6231421673 -0.0525810830 -0.0471216493
C 11.2309552554 1.2576342742 -0.0303329779
C 9.2480198693 -0.1793160537 -0.0198821520
C 8.6145964718 -1.4391434032 0.0837514520
C 7.2301681227 -1.5535657369 0.0848573645
C 6.3885946886 -0.4352938342 -0.0117353857
C 4.9202043779 -0.5636666096 -0.0119434330
C 4.1449401820 -1.6989343558 -0.0173475778
C 2.7452514643 -1.4348178468 -0.0176945252
C 2.4569261943 -0.0960633198 -0.0114650738
C 1.1267262085 0.5187707701 -0.0077844433
C 0.8491412855 1.8617942324 0.0146793998
S -0.8454635885 2.1202439967 0.0144491935
C -1.0814192282 0.3915077490 -0.0162614562
C -2.4144128359 -0.2017958087 -0.0311683477
C -2.6997911068 -1.5427597176 -0.0690371627
C -4.0949224034 -1.8074822256 -0.0711510864
C -4.8718371143 -0.6705097094 -0.0343197736
C -6.3374520998 -0.5402394604 -0.0203060479
C -6.9204615722 0.7285886857 0.1115106938
C -8.2989525915 0.8886156505 0.1337495630
C -9.1658015703 -0.2216906715 0.0208027982
N -10.5314357902 -0.0488188970 0.0461214822
C -11.4322168034 -1.1777019866 0.1136066329
C -11.0858657525 1.2828731623 -0.0430396878
C -8.5718093018 -1.4978622968 -0.1155729105
C -7.1921648524 -1.6484851331 -0.1340304861
S -3.8644211185 0.7373932902 0.0009591862
N 0.0204750441 -0.2944584990 -0.0249870928
S 3.9063714334 0.8444108323 -0.0057778892
C 7.0207242823 0.8128957569 -0.1048347383
C 8.4031788471 0.9494645990 -0.1084164008
H 11.2796254560 -1.6550562078 1.1922266216
H 12.5180622513 -0.8907151655 0.1600956019
H 11.3186415337 -1.9825774302 -0.5642496176
H 10.9750217962 1.8330211146 0.8801317182
H 10.9236890551 1.8543381864 -0.9061872084
H 12.3231706249 1.1501945094 -0.0701308939
H 9.2088730706 -2.3508288120 0.1662742534
H 6.7940297387 -2.5531259106 0.1717652650
H 4.5624582352 -2.7082685994 -0.0273908362
H 1.9616729134 -2.1951376944 -0.0231562295
H 1.5526920752 2.6952926176 0.0318291733
H -1.9135453039 -2.3001119618 -0.0929262146
H -4.5118800984 -2.8164353268 -0.0936349185
H -6.2828059700 1.6150505855 0.2085485554
H -8.7049914619 1.8947354030 0.2573392884
H -11.5114178319 -1.7225586383 -0.8470422105
H -12.4360249458 -0.8255485180 0.3879823838
H -11.1109149684 -1.8959014736 0.8859226093
H -10.9933753757 1.8492699497 0.9034581120
H -12.1528390216 1.2155189869 -0.2951270319
H -10.5918667666 1.8668917942 -0.8378286525
H -9.1936823377 -2.3882021939 -0.2251590493
H -6.7766876403 -2.6538624082 -0.2507840038
H 6.4092271790 1.7190319023 -0.1777020145
H 8.8248029419 1.9533937292 -0.1808795354
58
step=4 E=-2401.204301389474 Eh
C 11.4046517562 -1.3488634708 0.2002761936
N 10.6247602292 -0.1590822477 -0.0497669487
C 11.2725261702 1.1316005526 -0.0378285350
C 9.2467264094 -0.2298789259 -0.0234499861
C 8.5780437761 -1.4698558544 0.0833069061
C 7.1914607720 -1.5392532218 0.0852853599
C 6.3900101242 -0.3929555093 -0.0134668730
C 4.9185338825 -0.4897528398 -0.0118789116
C 4.1304862881 -1.6152789282 -0.0147449951
C 2.7349180229 -1.3291200890 -0.0141054021
C 2.4687059072 0.0140436692 -0.0097919596
C 1.1446924342 0.6443271352 -0.0061048247
C 0.8786979592 1.9888017538 0.0143574806
S -0.8142258736 2.2579370697 0.0145417514
C -1.0633528789 0.5348309048 -0.0130019320
C -2.3985293463 -0.0579403093 -0.0261516589
C -2.6784450321 -1.3998176300 -0.0616116944
C -4.0733077967 -1.6695208250 -0.0622229620
C -4.8487258102 -0.5329292382 -0.0267783485
C -6.3187164118 -0.4259637631 -0.0123405580
C -6.9725978246 0.8079475746 0.1156646394
C -8.3570354577 0.9079318186 0.1345307371
C -9.1741822323 -0.2392320412 0.0212012071
N -10.5490195271 -0.1602619975 0.0397075823
C -11.3397095353 -1.3674172364 0.1034250532
C -11.2102577338 1.1210878544 -0.0513734310
C -8.5139558089 -1.4814343662 -0.1112725944
C -7.1288152680 -1.5646343120 -0.1257780472
S -3.8486551726 0.8789143837 0.0051013555
N 0.0324285269 -0.1607169987 -0.0212866417
S 3.9296171574 0.9339140232 -0.0067249288
C 7.0563722567 0.8363884646 -0.1095844105
C 8.4421146528 0.9270465899 -0.1138866922
H 11.1936081992 -1.7946080204 1.1917304736
H 12.4726832547 -1.0955317599 0.1628919529
H 11.2205406576 -2.1244116956 -0.5641068979
H 11.0342748220 1.7201026837 0.8697096505
H 10.9859168223 1.7357535678 -0.9162442406
H 12.3611159124 0.9905615071 -0.0759395831
H 9.1449332300 -2.3992413586 0.1673833769
H 6.7221694208 -2.5240657902 0.1744666152
H 4.5349501467 -2.6303725048 -0.0237268316
H 1.9386085779 -2.0765261024 -0.0176879866
H 1.5890016276 2.8169380271 0.0297724841
H -1.8888810482 -2.1542233141 -0.0846806929
H -4.4899228395 -2.6792044586 -0.0825141392
H -6.3829024083 1.7266479623 0.2137218223
H -8.8066144549 1.8955766946 0.2558961176
H -11.3644053476 -1.9187048149 -0.8570702077
H -12.3735195923 -1.1111245795 0.3738686630
H -10.9562872525 -2.0535352870 0.8773980602
H -11.1687605323 1.6948546993 0.8948275737
H -12.2676965549 0.9667183408 -0.3072290373
H -10.7644720184 1.7450096065 -0.8447440746
H -9.0907946694 -2.4022146426 -0.2212312375
H -6.6692574864 -2.5513004042 -0.2401931492
H 6.4746429148 1.7623037942 -0.1843112604
H 8.8978604540 1.9161294465 -0.1885620989
58
step=5 E=-2401.204122817962 Eh
C 11.4118203648 -1.3444834793 0.2010714556
N 10.6243197081 -0.1628585792 -0.0576047520
C 11.2491271452 1.1379288934 -0.0632328891
C 9.2475632974 -0.2469765337 -0.0332329569
C 8.5736163800 -1.4816090588 0.0902863448
C 7.1881478165 -1.5476464740 0.1001442369
C 6.3897427185 -0.4010819595 -0.0074135148
C 4.9191802102 -0.4923835801 -0.0016514340
C 4.1254775329 -1.6134046256 -0.0016223637
C 2.7325818497 -1.3224985196 0.0012851892
C 2.4715204144 0.0216550920 0.0034581921
C 1.1533229777 0.6603909577 0.0051958329
C 0.8994431416 2.0068527719 0.0243280605
S -0.7925971778 2.2856337897 0.0190576258
C -1.0562967209 0.5666449617 -0.0069308689
C -2.3882167466 -0.0304042386 -0.0234919017
C -2.6666667343 -1.3727463734 -0.0599476217
C -4.0602390279 -1.6417367885 -0.0615290350
C -4.8385174790 -0.5077835280 -0.0275736212
C -6.3079821366 -0.4038799939 -0.0155941329
C -6.9928881923 0.8116012957 0.1169570051
C -8.3776642969 0.8892898176 0.1322774616
C -9.1644087209 -0.2757162123 0.0110981530
N -10.5386424451 -0.1936730242 0.0269101682
C -11.3543397374 -1.3832404358 0.0647876237
C -11.1811334683 1.0968772500 -0.0383633627
C -8.4869065573 -1.5071154424 -0.1268450483
C -7.1011876506 -1.5522337103 -0.1372267097
S -3.8399448185 0.9046712390 0.0036948741
N 0.0353410457 -0.1357459993 -0.0116882520
S 3.9365585926 0.9348959269 0.0054845394
C 7.0587125834 0.8241780373 -0.1188220409
C 8.4436640801 0.9080408758 -0.1295741258
H 11.2064471911 -1.7840338527 1.1956236887
H 12.4774346314 -1.0860129900 0.1598112226
H 11.2327759981 -2.1282378310 -0.5548931996
H 11.0013822855 1.7349052520 0.8352769155
H 10.9519216336 1.7260872003 -0.9480400174
H 12.3392030598 1.0176519087 -0.1005767642
H 9.1370054276 -2.4107171517 0.1812151936
H 6.7179994241 -2.5291314354 0.2023857609
H 4.5254361604 -2.6283378052 -0.0114826168
H 1.9339701152 -2.0649109844 -0.0008170094
H 1.6152856201 2.8275009159 0.0413083744
H -1.8774189692 -2.1250292219 -0.0817018637
H -4.4757603994 -2.6499859895 -0.0808038446
H -6.4265401859 1.7419235821 0.2232441416
H -8.8481255371 1.8657412471 0.2560759520
H -11.3790394524 -1.9222573187 -0.9016924507
H -12.3852271156 -1.1093803142 0.3256970555
H -10.9973291571 -2.0873788498 0.8338780879
H -11.1244538290 1.6552960029 0.9152790196
H -12.2419123587 0.9637939064 -0.2888008642
H -10.7331866389 1.7272462833 -0.8243871031
H -9.0429192268 -2.4380189089 -0.2437025838
H -6.6221360158 -2.5272135596 -0.2564927071
H 6.4835322679 1.7516309617 -0.2024934759
H 8.9017495924 1.8936997634 -0.2162475270
58
step=6 E=-2401.204482624440 Eh
C 11.4108948407 -1.3346492419 0.2042750521
N 10.6235574698 -0.1538494639 -0.0564092588
C 11.2602103057 1.1408025019 -0.0619108340
C 9.2459498806 -0.2335743141 -0.0333465399
C 8.5770733153 -1.4708935563 0.0911654989
C 7.1916382208 -1.5407422651 0.1007420362
C 6.3892532617 -0.3969413764 -0.0079882906
C 4.9186884766 -0.4923520227 -0.0025720100
C 4.1277373438 -1.6155240331 -0.0025566977
C 2.7339895178 -1.3284729741 0.0000407767
C 2.4690692292 0.0149873413 0.0020033394
C 1.1488939876 0.6499632706 0.0034066926
C 0.8892370652 1.9955712749 0.0223538437
S -0.8038133879 2.2691953728 0.0167309622
C -1.0605096747 0.5497398998 -0.0091832684
C -2.3914300071 -0.0499931047 -0.0259475559
C -2.6677989362 -1.3927117656 -0.0624552801
C -4.0608349049 -1.6643859550 -0.0642262721
C -4.8417114695 -0.5318513438 -0.0303445058
C -6.3105976859 -0.4247322961 -0.0184038751
C -6.9736564278 0.8021481567 0.1159029173
C -8.3575888672 0.8955157319 0.1326510249
C -9.1646930466 -0.2563078778 0.0120149809
N -10.5390751848 -0.1725222889 0.0278806507
C -11.3411511459 -1.3711930504 0.0641867713
C -11.1896083728 1.1141947259 -0.0351598538
C -8.5009448364 -1.4950673111 -0.1271868065
C -7.1162565430 -1.5650017600 -0.1399728422
S -3.8451096596 0.8819681788 0.0010950126
N 0.0335251645 -0.1498527476 -0.0136743234
S 3.9318312870 0.9320235834 0.0041301850
C 7.0548319846 0.8302119511 -0.1203568851
C 8.4396957601 0.9201198233 -0.1309880666
H 11.2055722908 -1.7724433644 1.1995938969
H 12.4766359584 -1.0763801505 0.1625196670
H 11.2317975920 -2.1197474031 -0.5502579555
H 11.0173171950 1.7403650125 0.8361492803
H 10.9695403601 1.7315551553 -0.9470897617
H 12.3492409102 1.0102824980 -0.0982127124
H 9.1437268838 -2.3979840901 0.1829830493
H 6.7246162479 -2.5235550735 0.2038032743
H 4.5305238680 -2.6293018434 -0.0122564726
H 1.9373381890 -2.0729629334 -0.0021347881
H 1.6020564303 2.8187905103 0.0394557347
H -1.8771606309 -2.1434635828 -0.0841025074
H -4.4741358337 -2.6734410186 -0.0834960601
H -6.3936589587 1.7243508043 0.2220530846
H -8.8131478623 1.8784725002 0.2577173492
H -11.3593754045 -1.9093951921 -0.9028935336
H -12.3751802515 -1.1098579595 0.3251833382
H -10.9763248980 -2.0724030826 0.8324631626
H -11.1353578363 1.6718592232 0.9190562398
H -12.2498260470 0.9749256595 -0.2844526012
H -10.7471349001 1.7487735624 -0.8208862362
H -9.0708787860 -2.4175832295 -0.2436265447
H -6.6516373728 -2.5468315471 -0.2603850595
H 6.4766428665 1.7556137527 -0.2050691056
H 8.8943765344 1.9071499959 -0.2184964873
58
step=7 E=-2401.204535580849 Eh
C 11.4103532029 -1.3159533390 0.2240230032
N 10.6265006758 -0.1348944196 -0.0451273203
C 11.2622966753 1.1600084871 -0.0585995628
C 9.2488023995 -0.2145179468 -0.0278745730
C 8.5866774772 -1.4550362760 0.1027806056
C 7.2012525878 -1.5312355412 0.1079824626
C 6.3948480867 -0.3910783903 -0.0117648026
C 4.9245790126 -0.4942286382 -0.0102922781
C 4.1412879820 -1.6230898940 -0.0107679360
C 2.7458441185 -1.3429834146 -0.0110539394
C 2.4733825955 -0.0008785636 -0.0106941797
C 1.1491923906 0.6264012324 -0.0114297765
C 0.8832817831 1.9710832326 0.0058978334
S -0.8105591479 2.2391801246 -0.0002462591
C -1.0576252043 0.5197408937 -0.0248400268
C -2.3910831327 -0.0754050490 -0.0402940461
C -2.6733216812 -1.4170621489 -0.0760114354
C -4.0671853270 -1.6863439572 -0.0762273645
C -4.8405998875 -0.5485769274 -0.0410370139
C -6.3092893915 -0.4396022746 -0.0265654685
C -6.9605029406 0.7929125760 0.1152714945
C -8.3440469259 0.8963525343 0.1362720923
C -9.1604068100 -0.2486730227 0.0127951920
N -10.5344488106 -0.1578415536 0.0338193264
C -11.3432597653 -1.3522301725 0.0607151279
C -11.1767203677 1.1334893861 -0.0123700752
C -8.5046216107 -1.4912255724 -0.1337161741
C -7.1205372161 -1.5759950432 -0.1513457277
S -3.8402761367 0.8625354520 -0.0111759092
N 0.0377123057 -0.1788658396 -0.0286858837
S 3.9303671948 0.9246940960 -0.0080597962
C 7.0545780029 0.8387615134 -0.1312131456
C 8.4393239238 0.9361190404 -0.1372362679
H 11.2015205007 -1.7480661760 1.2213957994
H 12.4771224846 -1.0608777703 0.1835375385
H 11.2313226688 -2.1053356475 -0.5264593778
H 11.0161564443 1.7665103231 0.8342099181
H 10.9745377787 1.7446488007 -0.9491303690
H 12.3517373219 1.0300536140 -0.0902430392
H 9.1581686536 -2.3786992399 0.2029152161
H 6.7378960428 -2.5155085549 0.2170518649
H 4.5507011490 -2.6346631635 -0.0188491889
H 1.9526771294 -2.0916953069 -0.0138452887
H 1.5929380982 2.7975281896 0.0228486092
H -1.8846488281 -2.1703098479 -0.0982636756
H -4.4852383998 -2.6939862824 -0.0943064102
H -6.3727684426 1.7102904747 0.2243922225
H -8.7915437524 1.8825114723 0.2673271894
H -11.3621868815 -1.8839173126 -0.9101763477
H -12.3767352925 -1.0876242069 0.3213705188
H -10.9841685562 -2.0614705469 0.8248063581
H -11.1082914419 1.6831793563 0.9457839844
H -12.2406728869 1.0033292194 -0.2511146835
H -10.7392420753 1.7724207541 -0.7978722557
H -9.0827173102 -2.4086600917 -0.2517475647
H -6.6635605083 -2.5611560420 -0.2774226567
H 6.4721770844 1.7609743078 -0.2254015039
H 8.8900843313 1.9246776940 -0.2309802909
58
step=8 E=-2401.204583681770 Eh
C 11.4308482353 -1.2844113561 0.2491177073
N 10.6320541482 -0.1164054991 -0.0307008887
C 11.2587765179 1.1823729145 -0.0525222772
C 9.2548279950 -0.2092224922 -0.0202938860
C 8.5965236194 -1.4511905966 0.1182188845
C 7.2113878899 -1.5343599212 0.1176761888
C 6.3994848521 -0.3996380977 -0.0165044714
C 4.9294590190 -0.5065126349 -0.0205789330
C 4.1466032614 -1.6358459207 -0.0220755035
C 2.7508326665 -1.3574825970 -0.0264492665
C 2.4778576754 -0.0154172996 -0.0284059015
C 1.1535449581 0.6115010832 -0.0326072845
C 0.8900505605 1.9567086913 -0.0176966049
S -0.8036282484 2.2258351515 -0.0255132836
C -1.0530316893 0.5076364751 -0.0475800450
C -2.3875368779 -0.0855097498 -0.0611793721
C -2.6706502747 -1.4270402827 -0.0951474202
C -4.0654972118 -1.6916331929 -0.0921215132
C -4.8382025281 -0.5533998116 -0.0558154331
C -6.3065728619 -0.4393479954 -0.0368594278
C -6.9536929829 0.7941163291 0.1140673529
C -8.3371474378 0.9000946944 0.1406531722
C -9.1582231570 -0.2411587367 0.0143414051
N -10.5321776886 -0.1506901805 0.0423182849
C -11.3354887337 -1.3486741830 0.0571224838
C -11.1763390714 1.1400211627 0.0184150450
C -8.5059623948 -1.4844767343 -0.1414715044
C -7.1221232736 -1.5723083308 -0.1649209661
S -3.8350805215 0.8552589057 -0.0298479346
N 0.0413849168 -0.1930222457 -0.0500042146
S 3.9340856744 0.9111640240 -0.0237050508
C 7.0543057938 0.8316915778 -0.1450088763
C 8.4387446302 0.9350661493 -0.1446567413
H 11.2258302699 -1.7117770094 1.2493994513
H 12.4943126247 -1.0154460178 0.2088701796
H 11.2643645842 -2.0821192422 -0.4955053546
H 11.0046361665 1.7946110667 0.8341857287
H 10.9710009961 1.7580235652 -0.9490121685
H 12.3493349615 1.0599732400 -0.0783581262
H 9.1714217741 -2.3713611521 0.2295764275
H 6.7525847684 -2.5198847419 0.2346970868
H 4.5572624176 -2.6469491526 -0.0281144153
H 1.9579289735 -2.1065631161 -0.0303860997
H 1.6007819187 2.7822671711 -0.0009400054
H -1.8831858236 -2.1816514974 -0.1179756450
H -4.4858415112 -2.6983709723 -0.1075274167
H -6.3637418950 1.7096544147 0.2266374935
H -8.7808262777 1.8869668420 0.2789235611
H -11.3490045441 -1.8721626273 -0.9183272849
H -12.3709840236 -1.0914909411 0.3170581651
H -10.9755454765 -2.0635154718 0.8158879256
H -11.0937509475 1.6799461903 0.9810283995
H -12.2437108117 1.0111277374 -0.2051806317
H -10.7524547280 1.7884240799 -0.7670585936
H -9.0868850348 -2.3999688298 -0.2612385202
H -6.6685196915 -2.5580933400 -0.2980328974
H 6.4687202468 1.7505927273 -0.2516569116
H 8.8846317268 1.9250611663 -0.2462825366
58
step=9 E=-2401.204627235329 Eh
C 11.4186376122 -1.3038980454 0.2670444143
N 10.6319664187 -0.1295261290 -0.0197394543
C 11.2717981728 1.1627208886 -0.0454839399
C 9.2541208526 -0.2101850851 -0.0150930660
C 8.5900904074 -1.4483556322 0.1275032951
C 7.2047661514 -1.5237093306 0.1222642655
C 6.3993565307 -0.3856690226 -0.0210517887
C 4.9291636008 -0.4869841459 -0.0289683302
C 4.1426318529 -1.6135789798 -0.0309559334
C 2.7478585732 -1.3314090802 -0.0383128521
C 2.4787690514 0.0113919250 -0.0422313826
C 1.1562772469 0.6416354579 -0.0489841660
C 0.8931656329 1.9867908834 -0.0361385854
S -0.8007217642 2.2548389681 -0.0451484931
C -1.0523557015 0.5365274197 -0.0646519593
C -2.3828063256 -0.0652655473 -0.0766121345
C -2.6572312973 -1.4084914192 -0.1086542220
C -4.0504287201 -1.6806079423 -0.1027195296
C -4.8323310123 -0.5487263791 -0.0661590228
C -6.3010346342 -0.4399585509 -0.0434850000
C -6.9542515908 0.7894547538 0.1122532430
C -8.3380226980 0.8881329955 0.1431924932
C -9.1532623198 -0.2571397116 0.0168135885
N -10.5272107196 -0.1697645843 0.0506058460
C -11.3293859642 -1.3683622450 0.0612776968
C -11.1726571189 1.1203587696 0.0388479363
C -8.4967024507 -1.4974567147 -0.1444951407
C -7.1125406872 -1.5756016381 -0.1720626187
S -3.8370430007 0.8655894974 -0.0440679913
N 0.0433845097 -0.1618985076 -0.0658351260
S 3.9379103630 0.9336590825 -0.0355294904
C 7.0606175558 0.8416491839 -0.1541910085
C 8.4454025182 0.9382120515 -0.1489936813
H 11.2064246258 -1.7253612156 1.2682172209
H 12.4846641668 -1.0454254816 0.2290725611
H 11.2465370356 -2.1026401997 -0.4750668170
H 11.0204444003 1.7816512084 0.8372112613
H 10.9935008488 1.7368534017 -0.9457980304
H 12.3610423243 1.0291181497 -0.0662993016
H 9.1600238241 -2.3706052523 0.2460487264
H 6.7401525933 -2.5058204980 0.2433733525
H 4.5503174543 -2.6256771592 -0.0352611683
H 1.9529221534 -2.0780692557 -0.0429215881
H 1.6037481797 2.8121883358 -0.0199927969
H -1.8653409378 -2.1582044901 -0.1316962304
H -4.4638301773 -2.6899492654 -0.1156082591
H -6.3687800484 1.7075464269 0.2255076711
H -8.7862846946 1.8722682367 0.2849862941
H -11.3421118152 -1.8882087309 -0.9159583561
H -12.3649637280 -1.1126299087 0.3216493190
H -10.9692412187 -2.0856612056 0.8175695622
H -11.0804391503 1.6554485966 1.0031251238
H -12.2420465853 0.9915527764 -0.1742126544
H -10.7574532354 1.7729866503 -0.7477394174
H -9.0728340990 -2.4157703790 -0.2645291082
H -6.6541573143 -2.5583681090 -0.3089946694
H 6.4800030139 1.7625759940 -0.2684517402
H 8.8968500728 1.9250610405 -0.2545601477
58
step=10 E=-2401.204708666247 Eh
C 11.4238092744 -1.2925884490 0.3148648163
N 10.6388388352 -0.1212662692 0.0115095269
C 11.2730667108 1.1735422152 -0.0244694905
C 9.2614682034 -0.2055016797 0.0016168042
C 8.5943527993 -1.4408951007 0.1538215325
C 7.2092516305 -1.5162091211 0.1353301896
C 6.4057615927 -0.3802126785 -0.0322393382
C 4.9356710060 -0.4805254420 -0.0514423223
C 4.1483022556 -1.6064231532 -0.0557168322
C 2.7539112416 -1.3232143819 -0.0716012174
C 2.4848815720 0.0195661142 -0.0802563712
C 1.1632150877 0.6513347062 -0.0938448994
C 0.8987337775 1.9962866140 -0.0862606791
S -0.7950948825 2.2642771592 -0.0980896057
C -1.0461996009 0.5456846673 -0.1109732669
C -2.3753402906 -0.0588055427 -0.1183729505
C -2.6497875332 -1.4020773399 -0.1458085523
C -4.0420087871 -1.6783196909 -0.1318412950
C -4.8243656650 -0.5468153720 -0.0936654291
C -6.2929728147 -0.4409656488 -0.0607406527
C -6.9474488646 0.7857945460 0.1093060992
C -8.3309316918 0.8830237396 0.1530328787
C -9.1448521463 -0.2631078797 0.0261126801
N -10.5185743862 -0.1790343075 0.0749328401
C -11.3180307707 -1.3793430203 0.0732678072
C -11.1656840600 1.1100606533 0.0963495668
C -8.4871184239 -1.5007184091 -0.1511541381
C -7.1032912636 -1.5771280219 -0.1914828549
S -3.8310092350 0.8694323718 -0.0815140746
N 0.0502244222 -0.1518813938 -0.1091447107
S 3.9448990932 0.9405505988 -0.0668657707
C 7.0695566120 0.8444172442 -0.1765457704
C 8.4542029558 0.9405356306 -0.1574329818
H 11.2038326490 -1.7054681378 1.3178717428
H 12.4898665175 -1.0338790990 0.2832347903
H 11.2580091839 -2.0978141241 -0.4216032494
H 11.0104284695 1.8019557922 0.8480914270
H 11.0006701161 1.7353272219 -0.9342985435
H 12.3629748918 1.0449885354 -0.0331687266
H 9.1622314117 -2.3615721558 0.2918042258
H 6.7429191874 -2.4960803379 0.2666316572
H 4.5554530933 -2.6186266282 -0.0556361326
H 1.9586877105 -2.0693671073 -0.0787085154
H 1.6087844963 2.8219786567 -0.0718161657
H -1.8569336785 -2.1505015464 -0.1701590871
H -4.4537084488 -2.6883300586 -0.1384835433
H -6.3623309370 1.7037264137 0.2246454152
H -8.7790283084 1.8655301064 0.3051775490
H -11.3286320646 -1.8889002874 -0.9092365671
H -12.3542074833 -1.1280711717 0.3349268719
H -10.9572208405 -2.1038561285 0.8224504331
H -11.0480149308 1.6320797014 1.0648550993
H -12.2401355490 0.9821953434 -0.0892930188
H -10.7726207450 1.7740449044 -0.6922211222
H -9.0625425086 -2.4191566356 -0.2723895208
H -6.6444686930 -2.5579606575 -0.3397642322
H 6.4908488591 1.7636801619 -0.3109923496
H 8.9071569202 1.9255740861 -0.2724948476
58
step=11 E=-2401.204810685929 Eh
C 11.4294536146 -1.2718501027 0.3852048497
N 10.6484517628 -0.1044568671 0.0571370344
C 11.2828735126 1.1900750058 0.0102580286
C 9.2716803457 -0.1902579973 0.0252277444
C 8.6026074241 -1.4231893164 0.1895056989
C 7.2179590350 -1.4996127880 0.1505158523
C 6.4169298875 -0.3673402254 -0.0512924992
C 4.9473105769 -0.4704967396 -0.0871369140
C 4.1634748973 -1.5988858542 -0.0947259291
C 2.7683655302 -1.3197747152 -0.1227228992
C 2.4957554083 0.0222569387 -0.1377178941
C 1.1717861786 0.6491605776 -0.1597564665
C 0.9046665437 1.9937871685 -0.1599267915
S -0.7892428961 2.2600164110 -0.1731122126
C -1.0357670546 0.5404250399 -0.1758849484
C -2.3670313267 -0.0592103204 -0.1752915682
C -2.6443096437 -1.4021575320 -0.1959879335
C -4.0370139948 -1.6754652356 -0.1695610283
C -4.8151984941 -0.5411858865 -0.1283911031
C -6.2835260570 -0.4369895693 -0.0803697151
C -6.9398495134 0.7860218394 0.1100007174
C -8.3229862906 0.8794882032 0.1713140754
C -9.1351302616 -0.2679549586 0.0430369030
N -10.5082080607 -0.1880411993 0.1119850931
C -11.3063346602 -1.3893400846 0.0942332606
C -11.1548704299 1.0999317694 0.1775254307
C -8.4760595876 -1.5015816851 -0.1568201145
C -7.0925172565 -1.5737869724 -0.2144966721
S -3.8195584153 0.8736398472 -0.1302913073
N 0.0608499766 -0.1567128312 -0.1708886380
S 3.9528396458 0.9479250218 -0.1152343332
C 7.0822274293 0.8549501396 -0.2096686428
C 8.4664539598 0.9519293628 -0.1694620874
H 11.1963280544 -1.6721836377 1.3903429553
H 12.4958408202 -1.0131928850 0.3643147165
H 11.2728837301 -2.0859813756 -0.3435604163
H 11.0063125920 1.8316948784 0.8687933826
H 11.0245805376 1.7372926497 -0.9125385815
H 12.3728480328 1.0617584158 0.0209522259
H 9.1683576303 -2.3407114778 0.3552170087
H 6.7494487348 -2.4767729690 0.2947306025
H 4.5738221700 -2.6099484171 -0.0882814469
H 1.9752892502 -2.0683348237 -0.1332824275
H 1.6133196311 2.8209680317 -0.1495454081
H -1.8532008868 -2.1525238574 -0.2230867030
H -4.4515152183 -2.6845703360 -0.1675477949
H -6.3554924793 1.7041722132 0.2283353667
H -8.7717213778 1.8594362142 0.3377534078
H -11.3154175605 -1.8848163134 -0.8953721384
H -12.3429315659 -1.1421731485 0.3578514121
H -10.9453993961 -2.1241621868 0.8336310947
H -11.0030481913 1.6041426178 1.1506164565
H -12.2350491329 0.9737400562 0.0280761674
H -10.7897640695 1.7786852415 -0.6122657796
H -9.0501581631 -2.4205502631 -0.2806625693
H -6.6324463053 -2.5516806410 -0.3790050864
H 6.5049579247 1.7707028293 -0.3723282680
H 8.9211249671 1.9348562790 -0.2963531612
58
step=12 E=-2401.204896083900 Eh
C 11.4368741267 -1.2253109450 0.4462801751
N 10.6544312540 -0.0654524937 0.0958156577
C 11.2793183561 1.2332523362 0.0361769235
C 9.2792375722 -0.1615516046 0.0445245612
C 8.6180005308 -1.3967944555 0.2229991648
C 7.2346101954 -1.4853470824 0.1666134571
C 6.4280578561 -0.3633388631 -0.0683907703
C 4.9597065659 -0.4759885474 -0.1185582447
C 4.1816612252 -1.6084618217 -0.1305650556
C 2.7854681909 -1.3356441574 -0.1679382587
C 2.5067269448 0.0051156479 -0.1861814111
C 1.1804312647 0.6267793740 -0.2138580328
C 0.9129455832 1.9712747242 -0.2211606186
S -0.7814440577 2.2339949823 -0.2342991686
C -1.0261884937 0.5140583822 -0.2268960431
C -2.3576754003 -0.0851787774 -0.2187187864
C -2.6380555795 -1.4276655707 -0.2330001633
C -4.0314796142 -1.6968834335 -0.1952328219
C -4.8070541666 -0.5608969571 -0.1521537689
C -6.2743612354 -0.4493980782 -0.0924466166
C -6.9194520883 0.7762138923 0.1185218135
C -8.3012320507 0.8791917448 0.1925956319
C -9.1229258039 -0.2607563270 0.0579974219
N -10.4945453979 -0.1724869425 0.1403523887
C -11.2985128058 -1.3694367288 0.1002174348
C -11.1300548814 1.1181640528 0.2488423046
C -8.4747435949 -1.4965832333 -0.1633695231
C -7.0922476441 -1.5789620379 -0.2342185006
S -3.8077348043 0.8509348848 -0.1658971337
N 0.0711292322 -0.1816149624 -0.2194699062
S 3.9590328641 0.9376934838 -0.1546265587
C 7.0862304422 0.8607282043 -0.2425095510
C 8.4688220233 0.9706180478 -0.1843188708
H 11.1942877741 -1.6147485366 1.4534988046
H 12.5023532780 -0.9622396366 0.4341650888
H 11.2915227545 -2.0487117113 -0.2744878204
H 10.9858193363 1.8862703786 0.8804142595
H 11.0296652866 1.7636397551 -0.8988499044
H 12.3700257649 1.1138685031 0.0641811711
H 9.1887200122 -2.3060388431 0.4157120869
H 6.7714149245 -2.4629443064 0.3251469287
H 4.5969677219 -2.6176083470 -0.1209029616
H 1.9958702385 -2.0879472948 -0.1825757350
H 1.6207496863 2.7994243274 -0.2159408430
H -1.8489665481 -2.1802422082 -0.2625545466
H -4.4486052474 -2.7049904899 -0.1853264947
H -6.3269185415 1.6883890052 0.2430727961
H -8.7410537927 1.8607445083 0.3728678975
H -11.3020648269 -1.8499431426 -0.8966803510
H -12.3359429813 -1.1206369569 0.3587127046
H -10.9470545498 -2.1174318879 0.8313850379
H -10.9442180040 1.6027859417 1.2258956785
H -12.2151475686 1.0012813300 0.1316585480
H -10.7850448516 1.8098104919 -0.5391629037
H -9.0570015854 -2.4096505441 -0.2933374459
H -6.6406836254 -2.5579760647 -0.4155969464
H 6.5037275241 1.7679283110 -0.4328802950
H 8.9178117575 1.9545333624 -0.3242180478
58
step=13 E=-2401.205050319434 Eh
C 11.4459377431 -1.1888008208 0.5057078655
N 10.6638615606 -0.0379332659 0.1274532920
C 11.2956887614 1.2558547577 0.0442528892
C 9.2895788623 -0.1355256707 0.0581526293
C 8.6248024938 -1.3646814785 0.2640295864
C 7.2421489901 -1.4536544643 0.1913200205
C 6.4409214065 -0.3385421556 -0.0892619607
C 4.9734262634 -0.4519867952 -0.1511818915
C 4.1966461161 -1.5850853125 -0.1711418133
C 2.8005464572 -1.3118836445 -0.2131670465
C 2.5215065926 0.0289064743 -0.2280048877
C 1.1957033546 0.6515997987 -0.2570501378
C 0.9230475983 1.9948831019 -0.2740629408
S -0.7718571291 2.2539724546 -0.2853651399
C -1.0122469199 0.5335374229 -0.2619278608
C -2.3406771050 -0.0722939153 -0.2441770131
C -2.6170122354 -1.4156977105 -0.2477942669
C -4.0089500744 -1.6913468671 -0.1976567729
C -4.7869475115 -0.5569514892 -0.1575120420
C -6.2540737065 -0.4499410842 -0.0914743671
C -6.9005170413 0.7697910583 0.1473246151
C -8.2823839751 0.8677241286 0.2240299703
C -9.1028613672 -0.2703322803 0.0673093430
N -10.4745587846 -0.1867009635 0.1513662129
C -11.2773182081 -1.3819184751 0.0650933014
C -11.1079029153 1.0985542647 0.3183516666
C -8.4525788052 -1.5000908785 -0.1806074215
C -7.0699677858 -1.5777146697 -0.2561667595
S -3.7934344399 0.8586173978 -0.1855961914
N 0.0874983414 -0.1582821129 -0.2514991807
S 3.9730803530 0.9617278665 -0.1835886552
C 7.1016891994 0.8795069169 -0.2926750229
C 8.4832599253 0.9894239235 -0.2167019175
H 11.1975962992 -1.5585647872 1.5188783299
H 12.5111015864 -0.9240329806 0.4952601576
H 11.3059828676 -2.0264129885 -0.1996335038
H 10.9931177138 1.9307445977 0.8677731947
H 11.0626482265 1.7641100708 -0.9072519923
H 12.3853093936 1.1321205878 0.0916527191
H 9.1915343420 -2.2676304334 0.4941087982
H 6.7746505074 -2.4248292428 0.3752465024
H 4.6129533238 -2.5939341101 -0.1657411913
H 2.0111303254 -2.0642680744 -0.2346309076
H 1.6285972027 2.8248996269 -0.2790453046
H -1.8252942171 -2.1655196477 -0.2775696177
H -4.4228004496 -2.7007449794 -0.1765768297
H -6.3096340057 1.6803245165 0.2903346493
H -8.7236070791 1.8452105863 0.4215001025
H -11.2491423455 -1.8421610278 -0.9406517938
H -12.3223387403 -1.1367581200 0.2943150658
H -10.9495452722 -2.1453325910 0.7919545948
H -10.8842209119 1.5569046013 1.2999104548
H -12.1963790447 0.9807444833 0.2423669547
H -10.7960865973 1.8131120157 -0.4635358644
H -9.0329646828 -2.4115081908 -0.3288328509
H -6.6162608694 -2.5511349953 -0.4611974191
H 6.5227441870 1.7798894406 -0.5222792752
H 8.9353921551 1.9682571925 -0.3799155879
58
step=14 E=-2401.205265897040 Eh
C 11.4683098311 -1.1307637212 0.4965672528
N 10.6830086535 0.0113174295 0.0987535158
C 11.3124007031 1.3022552520 -0.0339806569
C 9.3089174771 -0.0906371177 0.0390511449
C 8.6487430565 -1.3136661123 0.2908341810
C 7.2658468820 -1.4084414259 0.2266761312
C 6.4613220441 -0.3061695604 -0.0911008129
C 4.9940123558 -0.4232980784 -0.1438775708
C 4.2187548927 -1.5569241723 -0.1759366657
C 2.8212905641 -1.2874608278 -0.2035583179
C 2.5418440120 0.0532567879 -0.1959629895
C 1.2145709728 0.6729540809 -0.2112984209
C 0.9384345872 2.0153510390 -0.2351060190
S -0.7569361081 2.2710849437 -0.2373386708
C -0.9923350038 0.5495480523 -0.2002762608
C -2.3196486040 -0.0580381643 -0.1787707825
C -2.5863426678 -1.4033126524 -0.1741228625
C -3.9780975231 -1.6809571818 -0.1256316461
C -4.7622686250 -0.5505736801 -0.0972247892
C -6.2301715837 -0.4487686164 -0.0503147846
C -6.8821096974 0.7621903604 0.2171440542
C -8.2653061922 0.8577845963 0.2626860428
C -9.0803816425 -0.2748287534 0.0477594314
N -10.4535973934 -0.1916896645 0.0947540329
C -11.2510444875 -1.3816988508 -0.0738240616
C -11.0884629229 1.0846533742 0.3157346722
C -8.4239380374 -1.4964173252 -0.2232496861
C -7.0399154029 -1.5711490149 -0.2710489612
S -3.7754789268 0.8687569487 -0.1267987473
N 0.1085435387 -0.1395130347 -0.1900087269
S 3.9913977325 0.9886485032 -0.1402720515
C 7.1181220365 0.9057440552 -0.3389947510
C 8.4993255565 1.0227455436 -0.2715882295
H 11.2338679128 -1.4724166709 1.5228059365
H 12.5337445761 -0.8688431134 0.4640304767
H 11.3157060803 -1.9866768095 -0.1838526974
H 11.0101259319 2.0064353777 0.7646560847
H 11.0770142369 1.7746256767 -1.0033467310
H 12.4022909573 1.1820546364 0.0160843494
H 9.2189825082 -2.2057600090 0.5524141586
H 6.8001429543 -2.3727345650 0.4482435109
H 4.6378583784 -2.5645445158 -0.1947437508
H 2.0332754740 -2.0411118530 -0.2343446243
H 1.6420652456 2.8468489114 -0.2552826207
H -1.7915221994 -2.1502533474 -0.1977526706
H -4.3888898246 -2.6915218851 -0.0993047940
H -6.2947483682 1.6670625613 0.4042211148
H -8.7122482605 1.8291684413 0.4766794448
H -11.1495189852 -1.8174869626 -1.0852410960
H -12.3094043056 -1.1365063971 0.0817585388
H -10.9793519102 -2.1643045293 0.6567247859
H -10.8451542793 1.5110840947 1.3065823056
H -12.1777006004 0.9631346826 0.2614003866
H -10.7964276167 1.8268025250 -0.4486556882
H -8.9999426126 -2.4023533104 -0.4155552714
H -6.5797469980 -2.5357348198 -0.5024715632
H 6.5348095465 1.7941074518 -0.6017850409
H 8.9487112834 1.9964461062 -0.4698165174
58
step=15 E=-2401.205508649053 Eh
C 11.4982735367 -1.0539938566 0.5137937687
N 10.7118623174 0.0683567666 0.0649385460
C 11.3438100177 1.3460012654 -0.1546883861
C 9.3374499020 -0.0338271369 0.0173710426
C 8.6762554222 -1.2402798939 0.3364795939
C 7.2927675776 -1.3345451462 0.2826122877
C 6.4900444079 -0.2487194884 -0.0900676612
C 5.0229629376 -0.3704957932 -0.1355729761
C 4.2577438704 -1.5097885716 -0.1886259494
C 2.8584833771 -1.2477500546 -0.2018676363
C 2.5679221275 0.0899635502 -0.1615657696
C 1.2358592901 0.6993623000 -0.1617994555
C 0.9586420076 2.0412087331 -0.1942549270
S -0.7381092818 2.2889500242 -0.1820397686
C -0.9690187800 0.5666077012 -0.1325505111
C -2.2941529201 -0.0459354532 -0.1049794548
C -2.5589264251 -1.3913838701 -0.0932445980
C -3.9499098862 -1.6745311764 -0.0509501150
C -4.7374013337 -0.5465364992 -0.0314111961
C -6.2061495411 -0.4479850624 -0.0051578346
C -6.8666534124 0.7462886868 0.3111624400
C -8.2507962768 0.8384294503 0.3229741369
C -9.0587207714 -0.2804075779 0.0236599183
N -10.4329980124 -0.1984262060 0.0308698338
C -11.2243359759 -1.3705107447 -0.2529768719
C -11.0732711904 1.0574409884 0.3361530652
C -8.3939016277 -1.4866406138 -0.2912547437
C -7.0087872636 -1.5564629342 -0.3062008050
S -3.7539392663 0.8752293907 -0.0661768763
N 0.1337878821 -0.1184157932 -0.1273761215
S 4.0110373382 1.0343347941 -0.0919724862
C 7.1470186892 0.9484819357 -0.4013974287
C 8.5288309574 1.0641327683 -0.3469380211
H 11.2792228421 -1.3359128793 1.5613207587
H 12.5641853313 -0.8001234567 0.4500654064
H 11.3305407428 -1.9462490735 -0.1143206620
H 11.0398036242 2.1036896941 0.5923118081
H 11.1127965047 1.7510815417 -1.1552701362
H 12.4332452275 1.2280425095 -0.0924533088
H 9.2458126446 -2.1180397541 0.6436239425
H 6.8237370251 -2.2831786418 0.5584441828
H 4.6852879536 -2.5128173889 -0.2389710758
H 2.0758772239 -2.0059290789 -0.2482688590
H 1.6597077084 2.8742813421 -0.2307892205
H -1.7620079903 -2.1359834478 -0.1095592491
H -4.3582136716 -2.6858967213 -0.0206151941
H -6.2855375588 1.6389706003 0.5642265267
H -8.7049827290 1.7978049692 0.5724441929
H -11.0393620081 -1.7624916794 -1.2697266031
H -12.2894205098 -1.1164290213 -0.1813865454
H -11.0253543737 -2.1893600131 0.4623040739
H -10.8064137106 1.4286030056 1.3424093599
H -12.1623399996 0.9267510852 0.3068560381
H -10.8089465297 1.8459696226 -0.3920112501
H -8.9626176534 -2.3817830591 -0.5452585034
H -6.5400488976 -2.5056032505 -0.5799592811
H 6.5633512515 1.8216905008 -0.7096915729
H 8.9804279569 2.0247440078 -0.5969629369
58
step=16 E=-2401.205513005194 Eh
C 11.5067594044 -0.9684190867 0.6507579935
N 10.7426095492 0.1183589741 0.0902613186
C 11.3947160936 1.3545968801 -0.2635252297
C 9.3681029215 0.0290302347 0.0286602169
C 8.6837775351 -1.1337944827 0.4451098542
C 7.3000679556 -1.2138849428 0.3800679463
C 6.5202917764 -0.1552988235 -0.1027364049
C 5.0533863204 -0.2676832451 -0.1699180216
C 4.2815337256 -1.3986483986 -0.2728787013
C 2.8829558408 -1.1344691879 -0.2901335045
C 2.5993152267 0.2027035669 -0.2052486892
C 1.2665785135 0.8116436401 -0.2045617281
C 0.9712233228 2.1492979696 -0.2505451497
S -0.7277983415 2.3843188194 -0.2327678084
C -0.9400255702 0.6613503779 -0.1643124483
C -2.2568414438 0.0314971003 -0.1181104109
C -2.4968000433 -1.3182959060 -0.0805980157
C -3.8825985388 -1.6236618554 -0.0300047910
C -4.6912621059 -0.5106866499 -0.0283834492
C -6.1618296424 -0.4371441741 -0.0036916669
C -6.8445585402 0.7172571460 0.4000967778
C -8.2301595471 0.7917710947 0.4101033284
C -9.0170443163 -0.3118788841 0.0141201891
N -10.3931533546 -0.2499325562 0.0154356821
C -11.1651439971 -1.3848335847 -0.4268008764
C -11.0554406762 0.9413297892 0.4863735233
C -8.3304596379 -1.4797210771 -0.3871784900
C -6.9442166680 -1.5303246666 -0.3985429317
S -3.7337304655 0.9271584834 -0.1054937343
N 0.1702553460 -0.0131701992 -0.1616929678
S 4.0466409021 1.1385312474 -0.0902524326
C 7.1993067095 1.0008439467 -0.5078038454
C 8.5822276985 1.1014327067 -0.4454151539
H 11.2814494677 -1.1400696659 1.7205939569
H 12.5774211594 -0.7430758670 0.5653488184
H 11.3231006271 -1.9161395679 0.1155103246
H 11.0769633718 2.1987794329 0.3766987215
H 11.1972929133 1.6385790160 -1.3123681786
H 12.4803628167 1.2380979320 -0.1535395076
H 9.2357300049 -1.9871628946 0.8399793292
H 6.8100593049 -2.1232106572 0.7390839051
H 4.7087123081 -2.3989063687 -0.3615748918
H 2.0980448872 -1.8868771206 -0.3729295568
H 1.6632772079 2.9887296249 -0.2994180895
H -1.6864552153 -2.0481383539 -0.0807493789
H -4.2740315241 -2.6402256622 0.0284583695
H -6.2769964843 1.5923650774 0.7318393444
H -8.6995869107 1.7224837398 0.7294697348
H -10.8940507638 -1.6940622415 -1.4516296527
H -12.2294023083 -1.1186580304 -0.4330908639
H -11.0390490471 -2.2647906119 0.2317632086
H -10.7250459583 1.2187565989 1.5028811507
H -12.1375802105 0.7646589520 0.5273265465
H -10.8786901500 1.8126596740 -0.1719042682
H -8.8845404735 -2.3626440900 -0.7067235822
H -6.4581505850 -2.4468022832 -0.7436689645
H 6.6315252816 1.8497518623 -0.9013237396
H 9.0527603362 2.0279344369 -0.7758361884
58
step=17 E=-2401.205668423679 Eh
C 11.5040696821 -0.9938340723 0.6099667495
N 10.7331231605 0.1029781398 0.0784484202
C 11.3800107354 1.3507045846 -0.2445513654
C 9.3580310631 0.0125861817 0.0265359437
C 8.6808701490 -1.1622014903 0.4211342818
C 7.2968679945 -1.2442428904 0.3626277985
C 6.5097394174 -0.1774840057 -0.0906996584
C 5.0428100576 -0.2922856676 -0.1524671580
C 4.2765793089 -1.4278922908 -0.2484740929
C 2.8782705984 -1.1623570513 -0.2675081889
C 2.5888174472 0.1742706589 -0.1902869759
C 1.2562910086 0.7839883428 -0.1933540780
C 0.9714017032 2.1241874420 -0.2301904455
S -0.7266946985 2.3655864098 -0.2193653406
C -0.9498713201 0.6432766530 -0.1659393352
C -2.2709159920 0.0215493505 -0.1281730419
C -2.5209678535 -1.3266689029 -0.0884877148
C -3.9085183018 -1.6250254584 -0.0435641615
C -4.7069569534 -0.5047654152 -0.0514581197
C -6.1770081326 -0.4261960763 -0.0264267913
C -6.8522374078 0.7404832102 0.3543703749
C -8.2380278599 0.8107527588 0.3738906134
C -9.0306771824 -0.3008797536 0.0130477238
N -10.4065596255 -0.2379917579 0.0285567594
C -11.1847841488 -1.3846165121 -0.3708801115
C -11.0672435397 0.9685686260 0.4626569072
C -8.3503396845 -1.4789502002 -0.3682397218
C -6.9641269827 -1.5275880889 -0.3888759417
S -3.7410725965 0.9277603002 -0.1247969487
N 0.1566468651 -0.0370590747 -0.1587799960
S 4.0337426285 1.1129253042 -0.0769489541
C 7.1817429738 0.9897170798 -0.4749629969
C 8.5649344168 1.0926804080 -0.4177890111
H 11.2808025858 -1.1946968706 1.6752238354
H 12.5734058869 -0.7602492176 0.5285056933
H 11.3257038958 -1.9281903998 0.0499250735
H 11.0682661567 2.1749925411 0.4241901225
H 11.1705870703 1.6654934413 -1.2822614550
H 12.4669695987 1.2326448241 -0.1489916017
H 9.2379366467 -2.0232907576 0.7920725923
H 6.8122095057 -2.1643736719 0.7013459236
H 4.7060453076 -2.4282969232 -0.3283247657
H 2.0945037924 -1.9167769832 -0.3450580091
H 1.6686518124 2.9603699413 -0.2672911449
H -1.7149034171 -2.0615822397 -0.0811913847
H -4.3077582683 -2.6388743744 0.0166460967
H -6.2811670295 1.6238030832 0.6581413038
H -8.7056051433 1.7480670276 0.6770065776
H -10.9472518844 -1.7072725892 -1.4002445968
H -12.2513410666 -1.1275098984 -0.3429950658
H -11.0283494167 -2.2523793348 0.2965684805
H -10.7582250431 1.2643981022 1.4809756768
H -12.1521532191 0.8034847858 0.4812343004
H -10.8667262300 1.8233367837 -0.2096635480
H -8.9076935867 -2.3694364535 -0.6611283349
H -6.4804802932 -2.4534091622 -0.7126929454
H 6.6083466488 1.8464820091 -0.8434166359
H 9.0300472439 2.0278674702 -0.7314456253
58
step=18 E=-2401.205704407283 Eh
C 11.5037619311 -1.0030822898 0.5654422226
N 10.7280548692 0.0984783054 0.0508919252
C 11.3774346451 1.3485563731 -0.2584835658
C 9.3522198423 0.0110012939 0.0099863528
C 8.6781989529 -1.1679085494 0.3984401972
C 7.2939253670 -1.2522907274 0.3501937289
C 6.5046663762 -0.1802461818 -0.0869584716
C 5.0377544119 -0.2982742840 -0.1394204597
C 4.2735498107 -1.4355205234 -0.2331510554
C 2.8744383994 -1.1739546140 -0.2463607774
C 2.5838222526 0.1623636448 -0.1662298385
C 1.2497967562 0.7685290148 -0.1634678282
C 0.9648443063 2.1089637175 -0.1912768181
S -0.7333825315 2.3484778454 -0.1761659379
C -0.9549285677 0.6255053877 -0.1358034309
C -2.2767246813 0.0053160692 -0.1019881171
C -2.5346817253 -1.3410729639 -0.0522974127
C -3.9235776891 -1.6349102161 -0.0175937208
C -4.7168109470 -0.5113498374 -0.0436286393
C -6.1864182040 -0.4244323144 -0.0291049272
C -6.8602568380 0.7476861452 0.3386087848
C -8.2454150421 0.8291554838 0.3566638173
C -9.0387638852 -0.2842893966 0.0042662799
N -10.4139613436 -0.2178126789 0.0168290526
C -11.1920885595 -1.3679410872 -0.3738238890
C -11.0741399407 0.9966148114 0.4302439497
C -8.3608248913 -1.4672637151 -0.3659551737
C -6.9750529274 -1.5271017237 -0.3836997635
S -3.7435705773 0.9162758566 -0.1144423007
N 0.1516790776 -0.0544709134 -0.1319973198
S 4.0266209782 1.1047213275 -0.0572239631
C 7.1725293516 0.9910900317 -0.4660104632
C 8.5560057133 1.0955609321 -0.4177951624
H 11.2832560371 -1.2196577996 1.6281437625
H 12.5721558509 -0.7645778604 0.4843934387
H 11.3275153500 -1.9298486385 -0.0078864681
H 11.0745550148 2.1639897773 0.4251998216
H 11.1605528588 1.6793214418 -1.2896195420
H 12.4646671478 1.2246682950 -0.1728642518
H 9.2389257188 -2.0322727359 0.7563949609
H 6.8120035671 -2.1766339257 0.6819495757
H 4.7056366114 -2.4348908199 -0.3139002666
H 2.0916626350 -1.9299488387 -0.3211199030
H 1.6615407417 2.9460360419 -0.2237485921
H -1.7314948633 -2.0789986840 -0.0312615020
H -4.3279292835 -2.6466285524 0.0473907357
H -6.2847119316 1.6311990038 0.6333782724
H -8.7100579468 1.7708009949 0.6517614838
H -10.9635554033 -1.6904813249 -1.4055880754
H -12.2597280342 -1.1163810541 -0.3345061631
H -11.0246964663 -2.2338180104 0.2929847686
H -10.7900573535 1.2945360566 1.4555174829
H -12.1607127085 0.8420667972 0.4193782854
H -10.8472133827 1.8457450071 -0.2403544736
H -8.9224827289 -2.3571482760 -0.6527235524
H -6.4949223324 -2.4584818536 -0.6973449055
H 6.5949703390 1.8509488641 -0.8209460380
H 9.0178305172 2.0338765011 -0.7271837741
58
step=19 E=-2401.205760739235 Eh
C 11.5026938154 -1.0020290915 0.5377155989
N 10.7278955371 0.0983023159 0.0190055445
C 11.3755967124 1.3454561049 -0.3060727082
C 9.3517428158 0.0138136142 -0.0114723025
C 8.6775506712 -1.1602046092 0.3914644266
C 7.2927325826 -1.2394037325 0.3520270551
C 6.5033565628 -0.1691220094 -0.0894889539
C 5.0360934224 -0.2842572896 -0.1352069481
C 4.2694170713 -1.4189102981 -0.2391027033
C 2.8707198808 -1.1550732836 -0.2434456501
C 2.5831945215 0.1808622689 -0.1468033176
C 1.2501534685 0.7890207830 -0.1329666592
C 0.9629283389 2.1291914256 -0.1503879988
S -0.7351153758 2.3691520931 -0.1261054867
C -0.9544069881 0.6458319714 -0.0982949100
C -2.2760669426 0.0258976517 -0.0636077757
C -2.5334307116 -1.3196810595 0.0071423243
C -3.9226006467 -1.6130589200 0.0319273694
C -4.7162660123 -0.4908944031 -0.0224070302
C -6.1857903227 -0.4045212521 -0.0220202301
C -6.8639128205 0.7635802143 0.3503930136
C -8.2496323030 0.8351332743 0.3577961620
C -9.0388782958 -0.2765041935 -0.0094412280
N -10.4140425789 -0.2161225557 -0.0063432024
C -11.1855903518 -1.3619280180 -0.4230264252
C -11.0810818750 0.9915391526 0.4159216236
C -8.3554785182 -1.4542643441 -0.3852323903
C -6.9693040884 -1.5061618837 -0.3910539538
S -3.7430975129 0.9357766215 -0.1056080816
N 0.1523767111 -0.0340730892 -0.1037190837
S 4.0281262961 1.1195098964 -0.0340480017
C 7.1716369105 0.9969155983 -0.4831665051
C 8.5557668242 1.0967687402 -0.4435117345
H 11.2819382096 -1.2141011413 1.6011470080
H 12.5712640151 -0.7649061138 0.4552294356
H 11.3256042770 -1.9309706871 -0.0320547267
H 11.0759360305 2.1674750243 0.3711793878
H 11.1530162743 1.6660360541 -1.3392067646
H 12.4632074022 1.2228531577 -0.2240516755
H 9.2379308569 -2.0232400472 0.7533644550
H 6.8090680385 -2.1589659732 0.6945277060
H 4.7005446300 -2.4176126000 -0.3327837760
H 2.0860189229 -1.9085402155 -0.3238237886
H 1.6588076570 2.9670018955 -0.1806723555
H -1.7298484805 -2.0562772277 0.0500690435
H -4.3282482678 -2.6232794134 0.1111513350
H -6.2933957999 1.6468565417 0.6556039947
H -8.7212117073 1.7715454385 0.6585384900
H -10.9471647486 -1.6653158291 -1.4585079103
H -12.2544760987 -1.1152315983 -0.3879593565
H -11.0206710605 -2.2387435392 0.2297609305
H -10.8177064666 1.2706770349 1.4521733424
H -12.1671882080 0.8386161900 0.3793592556
H -10.8396349719 1.8520665529 -0.2345033840
H -8.9115033985 -2.3437443381 -0.6839416605
H -6.4822346420 -2.4324892781 -0.7090507895
H 6.5939146370 1.8552591702 -0.8415519305
H 9.0185790550 2.0304862727 -0.7652059878
58
step=20 E=-2401.205767794496 Eh
C 11.5012115181 -0.9867522373 0.4849786858
N 10.7262296127 0.1056568716 -0.0499325072
C 11.3747097437 1.3412540027 -0.4152835635
C 9.3495217596 0.0268149855 -0.0613904821
C 8.6757607338 -1.1354635871 0.3748811168
C 7.2901956140 -1.2081515905 0.3555025510
C 6.4985355252 -0.1448807972 -0.0986578087
C 5.0301319536 -0.2515028158 -0.1300950894
C 4.2585171201 -1.3797637606 -0.2615266079
C 2.8615820259 -1.1069280683 -0.2443163437
C 2.5787707182 0.2263235079 -0.1056458724
C 1.2496525863 0.8425498125 -0.0667149823
C 0.9702871145 2.1843314003 -0.0590413596
S -0.7264019160 2.4326846562 -0.0180493854
C -0.9567630472 0.7106708013 -0.0193187237
C -2.2794665468 0.0930367257 0.0162194668
C -2.5287731830 -1.2510631424 0.1332432480
C -3.9172053801 -1.5483858398 0.1423140875
C -4.7136828728 -0.4326572368 0.0285215384
C -6.1835209281 -0.3601429043 0.0013913251
C -6.8787297624 0.7925144760 0.3893435232
C -8.2650155524 0.8487887413 0.3736620958
C -9.0361219098 -0.2613502762 -0.0352015539
N -10.4116501066 -0.2132401128 -0.0547877784
C -11.1630504748 -1.3503985291 -0.5279968626
C -11.0967703601 0.9776879965 0.3857473375
C -8.3343464301 -1.4235989676 -0.4257265712
C -6.9477537633 -1.4613516899 -0.4071089351
S -3.7478456820 0.9950175424 -0.0998451160
N 0.1467636192 0.0258373184 -0.0458865771
S 4.0298092326 1.1531433733 0.0228263515
C 7.1679322712 1.0085750726 -0.5252823100
C 8.5529422622 1.1039186132 -0.5062995319
H 11.2803399435 -1.1815841495 1.5514073662
H 12.5697427661 -0.7510099039 0.3989580133
H 11.3239057720 -1.9250355106 -0.0697343181
H 11.0807149815 2.1829690950 0.2398348030
H 11.1464392179 1.6326694537 -1.4557690575
H 12.4624444723 1.2187840958 -0.3355904903
H 9.2373443635 -1.9932732442 0.7470832637
H 6.8058971930 -2.1168409144 0.7249539327
H 4.6856223284 -2.3761879006 -0.3911772429
H 2.0723206863 -1.8533598671 -0.3418882946
H 1.6705534336 3.0185920987 -0.0822724114
H -1.7224976986 -1.9805944478 0.2225127988
H -4.3226535790 -2.5553632317 0.2562915964
H -6.3215513982 1.6729997368 0.7254005397
H -8.7526118387 1.7712736518 0.6911379623
H -10.8966777483 -1.6176030595 -1.5667376216
H -12.2342052011 -1.1125447553 -0.5103363162
H -11.0072157518 -2.2471509917 0.0992796005
H -10.8725150108 1.2189387692 1.4408105618
H -12.1802322768 0.8259247558 0.3014166858
H -10.8330238058 1.8615131575 -0.2230827659
H -8.8758768836 -2.3109316762 -0.7553827334
H -6.4431337959 -2.3730477194 -0.7398931529
H 6.5885401063 1.8609460960 -0.8946977221
H 9.0152860174 2.0279084724 -0.8554970979
58
step=21 E=-2401.205818612369 Eh
C 11.5045761760 -0.9829223084 0.4339252547
N 10.7223188948 0.1149387754 -0.0789131660
C 11.3629910469 1.3589605109 -0.4288515687
C 9.3458398049 0.0312384269 -0.0806815894
C 8.6791426322 -1.1404005157 0.3408693207
C 7.2936747045 -1.2175670839 0.3320797707
C 6.4959283912 -0.1488667943 -0.0977827456
C 5.0276175462 -0.2623875135 -0.1173203057
C 4.2565684380 -1.3913554974 -0.2459386890
C 2.8579409199 -1.1272746918 -0.2201972857
C 2.5746409676 0.2053207378 -0.0763306902
C 1.2432552468 0.8161905987 -0.0301201327
C 0.9611181422 2.1572901647 -0.0097018936
S -0.7357614866 2.4025743423 0.0360996817
C -0.9625751526 0.6802330192 0.0156313283
C -2.2866131865 0.0644271046 0.0462099542
C -2.5458788603 -1.2773483762 0.1672472276
C -3.9361056601 -1.5673187549 0.1720515389
C -4.7263444440 -0.4480345763 0.0503864760
C -6.1957378187 -0.3634288344 0.0152821442
C -6.8833040270 0.7978313628 0.3901950373
C -8.2689199615 0.8668141670 0.3631256272
C -9.0484483394 -0.2389397916 -0.0427662606
N -10.4238834269 -0.1785918258 -0.0718617349
C -11.1860502478 -1.3194481011 -0.5175507159
C -11.0982453281 1.0324278271 0.3279243317
C -8.3546441024 -1.4110207561 -0.4185598326
C -6.9684112476 -1.4596591759 -0.3906077961
S -3.7502545309 0.9722005680 -0.0836580152
N 0.1418412979 -0.0030081955 -0.0175834292
S 4.0231859508 1.1374049554 0.0483823800
C 7.1571499482 1.0147005428 -0.5102872407
C 8.5419612903 1.1128364906 -0.5007822859
H 11.2883929747 -1.1969844895 1.4976088977
H 12.5716268975 -0.7402732606 0.3493291369
H 11.3297430241 -1.9126844779 -0.1358794889
H 11.0723014137 2.1881717699 0.2434548384
H 11.1244202231 1.6676742898 -1.4619520062
H 12.4518600425 1.2387444967 -0.3623349371
H 9.2465766647 -2.0029870546 0.6923193408
H 6.8157942743 -2.1345535995 0.6890830537
H 4.6858279899 -2.3859488977 -0.3813191145
H 2.0709626835 -1.8764118066 -0.3161972864
H 1.6598761896 2.9929366702 -0.0257678273
H -1.7448457022 -2.0117215043 0.2626744269
H -4.3472938813 -2.5716473582 0.2881635257
H -6.3210050428 1.6753036991 0.7255991355
H -8.7492189159 1.7959305858 0.6717414384
H -10.9319832844 -1.6097553704 -1.5532841617
H -12.2554320071 -1.0743582097 -0.4926177598
H -11.0294085043 -2.2042001739 0.1261382595
H -10.8936619533 1.2937624736 1.3823457741
H -12.1819970404 0.8977115340 0.2206612902
H -10.8053065978 1.8975250464 -0.2940855495
H -8.9013471875 -2.2956674423 -0.7470164539
H -6.4700524758 -2.3781462082 -0.7136664004
H 6.5727238890 1.8711825212 -0.8617432051
H 8.9990088892 2.0443102362 -0.8367276691
58
step=22 E=-2401.205835384819 Eh
C 11.5012178473 -0.9875837720 0.4167980661
N 10.7150662482 0.1161093321 -0.0769532680
C 11.3532259194 1.3671924138 -0.4047335034
C 9.3388471641 0.0285102789 -0.0812776884
C 8.6738974339 -1.1519506124 0.3177674037
C 7.2884807440 -1.2312345352 0.3077240730
C 6.4888722479 -0.1562568378 -0.1020900647
C 5.0206116562 -0.2702981058 -0.1212541481
C 4.2535401057 -1.4027399020 -0.2436138651
C 2.8549397293 -1.1381895368 -0.2186914445
C 2.5673604121 0.1940466117 -0.0807738161
C 1.2354139596 0.8034368040 -0.0341328166
C 0.9489790772 2.1437110024 -0.0072492114
S -0.7479543821 2.3860053897 0.0415600305
C -0.9699990630 0.6631522102 0.0106733648
C -2.2939236251 0.0470228096 0.0421344499
C -2.5562978851 -1.2939610058 0.1634057288
C -3.9474178147 -1.5801108615 0.1715041011
C -4.7364394769 -0.4595575832 0.0541969516
C -6.2054591170 -0.3673750327 0.0201065558
C -6.8859347128 0.8017954318 0.3834244409
C -8.2709201267 0.8836015395 0.3566563040
C -9.0566269272 -0.2219584539 -0.0370206991
N -10.4317068303 -0.1515978857 -0.0636674423
C -11.2015564169 -1.3019371015 -0.4692805943
C -11.0956799782 1.0760474321 0.3008005112
C -8.3713573538 -1.4026268342 -0.4016158044
C -6.9855822708 -1.4620041165 -0.3755214011
S -3.7564066686 0.9580887084 -0.0785418913
N 0.1356083147 -0.0179873284 -0.0259063643
S 4.0139705150 1.1295259311 0.0366718470
C 7.1485202617 1.0156779293 -0.4931860233
C 8.5330307242 1.1160992952 -0.4819431351
H 11.2855736376 -1.2207080609 1.4766570462
H 12.5673524501 -0.7392473152 0.3377112701
H 11.3299095772 -1.9080789620 -0.1687675281
H 11.0635830895 2.1831702973 0.2839573697
H 11.1117699084 1.6952077984 -1.4312101134
H 12.4424599942 1.2467841961 -0.3446254913
H 9.2426358531 -2.0204730762 0.6518301054
H 6.8132278972 -2.1561478745 0.6470569825
H 4.6832679505 -2.3978123312 -0.3739812397
H 2.0694422677 -1.8893094835 -0.3105141566
H 1.6458187190 2.9809757599 -0.0186689283
H -1.7575133988 -2.0311355638 0.2553464195
H -4.3598683593 -2.5839343088 0.2868145069
H -6.3175085236 1.6777379400 0.7123703085
H -8.7430918067 1.8196512403 0.6566038247
H -10.9662924609 -1.6185595010 -1.5018081130
H -12.2703022205 -1.0560583763 -0.4306642468
H -11.0331960672 -2.1704335135 0.1932983964
H -10.8925244337 1.3651567534 1.3482137599
H -12.1803220300 0.9493592916 0.1927274317
H -10.7918730915 1.9204906674 -0.3440616904
H -8.9247151419 -2.2860997538 -0.7221492154
H -6.4948798590 -2.3876667528 -0.6895607977
H 6.5634453987 1.8774438780 -0.8301040370
H 8.9886369297 2.0547984294 -0.7992269835
58
step=23 E=-2401.205844258477 Eh
C 11.4935307834 -0.9901484088 0.4265535788
N 10.7111410517 0.1155588054 -0.0683746138
C 11.3543998829 1.3641890666 -0.3949391353
C 9.3348399328 0.0305091945 -0.0801349692
C 8.6655598805 -1.1491780254 0.3138496387
C 7.2800846101 -1.2268878259 0.2983383519
C 6.4845303535 -0.1496702876 -0.1131401803
C 5.0161237326 -0.2599796708 -0.1372790301
C 4.2436474198 -1.3885009989 -0.2619598785
C 2.8456159295 -1.1212183883 -0.2384021296
C 2.5640560390 0.2121122509 -0.0992934457
C 1.2337114010 0.8242609132 -0.0511188144
C 0.9531911209 2.1656855482 -0.0204083852
S -0.7431623336 2.4110274761 0.0311530795
C -0.9720017883 0.6888124177 -0.0025885547
C -2.2957209525 0.0725556700 0.0332605604
C -2.5567604258 -1.2677327509 0.1645321467
C -3.9470720099 -1.5575270995 0.1775144117
C -4.7358089143 -0.4374623922 0.0545958778
C -6.2048682780 -0.3506873818 0.0222253744
C -6.8881998234 0.8163243056 0.3874646659
C -8.2735303541 0.8933361739 0.3632976954
C -9.0560318490 -0.2145692430 -0.0294984324
N -10.4314519230 -0.1499866317 -0.0534460857
C -11.1985196731 -1.3045503315 -0.4517636622
C -11.0992686891 1.0754368371 0.3109571932
C -8.3670891317 -1.3921080083 -0.3968058065
C -6.9811965325 -1.4479038147 -0.3736363756
S -3.7590850284 0.9816549295 -0.0895634813
N 0.1318313909 0.0054641098 -0.0425538248
S 4.0138836372 1.1430346638 0.0190142850
C 7.1486655265 1.0211570670 -0.5000664419
C 8.5331886973 1.1202862678 -0.4834022329
H 11.2733671658 -1.2244207468 1.4852688217
H 12.5603449970 -0.7433097167 0.3522685682
H 11.3230270455 -1.9095065386 -0.1609081921
H 11.0647431895 2.1817641454 0.2917561407
H 11.1178262673 1.6918614090 -1.4227448222
H 12.4430405541 1.2405209510 -0.3308086585
H 9.2314003063 -2.0192302062 0.6487548906
H 6.8021284019 -2.1513560110 0.6350069728
H 4.6696804552 -2.3850015752 -0.3928744950
H 2.0577678134 -1.8697489377 -0.3313251102
H 1.6527573155 3.0007198327 -0.0304876439
H -1.7569060675 -2.0031577853 0.2606290362
H -4.3582113219 -2.5609334295 0.3014377285
H -6.3220799790 1.6933764735 0.7174583419
H -8.7479097631 1.8278498635 0.6644647388
H -10.9675300514 -1.6228956788 -1.4846869584
H -12.2682135490 -1.0635953607 -0.4084270125
H -11.0223793008 -2.1704871338 0.2122228802
H -10.8915144850 1.3691957703 1.3560621250
H -12.1839254939 0.9427465736 0.2104123403
H -10.8035905730 1.9192774916 -0.3386262634
H -8.9180691202 -2.2770382736 -0.7172460337
H -6.4879505709 -2.3717466342 -0.6892789093
H 6.5664382474 1.8842048022 -0.8385229529
H 8.9917256887 2.0586418761 -0.7974202661
58
step=24 E=-2401.205846236386 Eh
C 11.4920494949 -0.9725968727 0.4288958839
N 10.7115464971 0.1309717611 -0.0737247616
C 11.3563937786 1.3747666775 -0.4153346915
C 9.3352449789 0.0469631536 -0.0869070846
C 8.6652000575 -1.1291914121 0.3158531502
C 7.2796532370 -1.2051341383 0.2989614566
C 6.4853988670 -0.1305107844 -0.1219156199
C 5.0172348901 -0.2422920401 -0.1459496332
C 4.2455111841 -1.3707862270 -0.2742806821
C 2.8473427596 -1.1044788513 -0.2485816787
C 2.5642158497 0.2280740305 -0.1046467517
C 1.2340271520 0.8405035491 -0.0534660171
C 0.9548957352 2.1820424789 -0.0195948806
S -0.7412119545 2.4290782389 0.0351402438
C -0.9716379548 0.7072025503 -0.0012635186
C -2.2959835206 0.0923936196 0.0361328402
C -2.5572800382 -1.2463744962 0.1819384946
C -3.9478406313 -1.5352140517 0.1959956080
C -4.7359843984 -0.4165510429 0.0585342587
C -6.2049503403 -0.3301625241 0.0247155599
C -6.8899243560 0.8329701578 0.3990436252
C -8.2754285030 0.9079096094 0.3755740178
C -9.0564985406 -0.1974826956 -0.0269211473
N -10.4320714617 -0.1352135944 -0.0520755485
C -11.1973083937 -1.2847617061 -0.4678465174
C -11.1031724243 1.0824075009 0.3319557332
C -8.3653852026 -1.3705549366 -0.4042252119
C -6.9793818574 -1.4252282517 -0.3805201540
S -3.7587559816 1.0001084056 -0.1044285757
N 0.1314251311 0.0227087909 -0.0441815803
S 4.0138134117 1.1588219753 0.0186266225
C 7.1496453333 1.0371732443 -0.5179891180
C 8.5343461192 1.1336809378 -0.5000348005
H 11.2703502202 -1.1998144139 1.4887932669
H 12.5592490178 -0.7275669870 0.3541299805
H 11.3211871955 -1.8955538819 -0.1528567666
H 11.0669961797 2.2010912018 0.2608706554
H 11.1208258510 1.6899397778 -1.4473548021
H 12.4448460797 1.2510434729 -0.3483161095
H 9.2299416348 -1.9968774030 0.6587704450
H 6.7998468950 -2.1259934098 0.6429935501
H 4.6725733673 -2.3662662217 -0.4096886808
H 2.0600579958 -1.8532965452 -0.3436747504
H 1.6553317361 3.0163537616 -0.0295943767
H -1.7577773368 -1.9806073560 0.2896229660
H -4.3601914434 -2.5364570666 0.3329939627
H -6.3245570094 1.7078299014 0.7360508262
H -8.7513657066 1.8393842805 0.6837302426
H -10.9631978348 -1.5884768315 -1.5044489184
H -12.2673161777 -1.0449134864 -0.4250176137
H -11.0224695962 -2.1596883332 0.1846134983
H -10.8927548682 1.3617873670 1.3804222749
H -12.1877540620 0.9466375029 0.2343295316
H -10.8131766529 1.9367115762 -0.3064417812
H -8.9151026328 -2.2534501463 -0.7322082566
H -6.4841795403 -2.3453127432 -0.7041770078
H 6.5682016149 1.8979295694 -0.8637830620
H 8.9943119268 2.0686748766 -0.8217217629
58
step=25 E=-2401.205849500019 Eh
C 11.4895301024 -0.9661401137 0.4325182730
N 10.7101334022 0.1373871972 -0.0719055367
C 11.3561956282 1.3792624700 -0.4183936490
C 9.3338362804 0.0539140377 -0.0862655187
C 8.6634786411 -1.1214251559 0.3184911534
C 7.2780547579 -1.1992081177 0.3007499939
C 6.4836855532 -0.1257189773 -0.1228437046
C 5.0154080019 -0.2359751670 -0.1484040280
C 4.2436241692 -1.3648112691 -0.2734266282
C 2.8457017298 -1.0970465869 -0.2503679022
C 2.5629896512 0.2361618122 -0.1114846923
C 1.2329497987 0.8493121297 -0.0628419026
C 0.9528453921 2.1906671785 -0.0313199399
S -0.7432709658 2.4383261035 0.0232748779
C -0.9728438996 0.7165084207 -0.0111553974
C -2.2976750159 0.1027450870 0.0263348471
C -2.5598393737 -1.2358009370 0.1727594799
C -3.9507188145 -1.5232236318 0.1881742354
C -4.7382334630 -0.4040842543 0.0514232158
C -6.2073251646 -0.3168564140 0.0212715906
C -6.8915025637 0.8453625652 0.3995316803
C -8.2771705661 0.9185557035 0.3802203019
C -9.0590350923 -0.1865075583 -0.0218204070
N -10.4345691686 -0.1236420503 -0.0424590611
C -11.1998222435 -1.2723284078 -0.4607703848
C -11.1051895148 1.0911993895 0.3514964450
C -8.3691999600 -1.3588629571 -0.4037475685
C -6.9830193982 -1.4113079687 -0.3832916854
S -3.7598723826 1.0114541952 -0.1143109012
N 0.1302247618 0.0317609861 -0.0533365668
S 4.0128824648 1.1664615112 0.0103517963
C 7.1488978153 1.0408957002 -0.5203334093
C 8.5334389907 1.1398510627 -0.5022192585
H 11.2676793521 -1.1913204503 1.4927717683
H 12.5569857590 -0.7223868847 0.3570644522
H 11.3177431908 -1.8899584950 -0.1476981799
H 11.0680551891 2.2084003327 0.2549177026
H 11.1204576179 1.6909744617 -1.4514140537
H 12.4445305352 1.2546401090 -0.3511103658
H 9.2285053271 -1.9879536175 0.6639336046
H 6.7986290395 -2.1197719216 0.6461211875
H 4.6702955862 -2.3610724102 -0.4044396198
H 2.0579863425 -1.8456851220 -0.3433240145
H 1.6531301278 3.0250737577 -0.0423108416
H -1.7607480130 -1.9705484603 0.2801286408
H -4.3639534181 -2.5239881409 0.3260199777
H -6.3255828216 1.7202283283 0.7355477586
H -8.7533050285 1.8491476641 0.6908899492
H -10.9704952130 -1.5697588668 -1.5003244155
H -12.2699988653 -1.0345098214 -0.4113388388
H -11.0202000106 -2.1505924568 0.1857650670
H -10.8893718447 1.3650522005 1.4003810000
H -12.1901390618 0.9544852558 0.2594213319
H -10.8197861669 1.9493695632 -0.2836808016
H -8.9193100644 -2.2414870969 -0.7318592783
H -6.4877847075 -2.3302920079 -0.7099004980
H 6.5671290141 1.9007373165 -0.8678340543
H 8.9928112466 2.0745410439 -0.8256748789
58
step=26 E=-2401.205851283366 Eh
C 11.4876566157 -0.9656559976 0.4301026137
N 10.7083321656 0.1381299608 -0.0739676354
C 11.3545295594 1.3790109864 -0.4238581102
C 9.3320128244 0.0555462133 -0.0870552620
C 8.6606953716 -1.1187462663 0.3193360636
C 7.2750863724 -1.1929126092 0.3014287703
C 6.4813662645 -0.1191040244 -0.1228629431
C 5.0128769967 -0.2273095354 -0.1482080673
C 4.2407524961 -1.3562536783 -0.2708852751
C 2.8430538795 -1.0871861016 -0.2486696743
C 2.5615140636 0.2465557028 -0.1125524727
C 1.2313852352 0.8596298760 -0.0648566498
C 0.9503909267 2.2008717028 -0.0347447250
S -0.7459112521 2.4474060452 0.0198741925
C -0.9744072637 0.7254879976 -0.0133144520
C -2.2989295031 0.1109862796 0.0244203918
C -2.5600310503 -1.2278958024 0.1698520948
C -3.9508580393 -1.5155770271 0.1850692876
C -4.7393161031 -0.3969230243 0.0495132015
C -6.2085437155 -0.3101178517 0.0199751789
C -6.8922130938 0.8517532163 0.4002760370
C -8.2778615821 0.9254266507 0.3823139345
C -9.0600739624 -0.1792979799 -0.0202749173
N -10.4355780480 -0.1165731382 -0.0394437831
C -11.2010213829 -1.2648932886 -0.4588316314
C -11.1059304736 1.0971198932 0.3586375639
C -8.3705804844 -1.3512325066 -0.4042875419
C -6.9843986433 -1.4042302948 -0.3852998974
S -3.7616537054 1.0192705995 -0.1138874725
N 0.1291083200 0.0414381626 -0.0549995466
S 4.0117124931 1.1765263549 0.0068474180
C 7.1476934667 1.0464076362 -0.5215280359
C 8.5324902418 1.1419612638 -0.5034917805
H 11.2672636787 -1.1898435030 1.4908330482
H 12.5551987793 -0.7228008175 0.3527851514
H 11.3143224181 -1.8898454089 -0.1491589378
H 11.0680726015 2.2095349831 0.2484890062
H 11.1171677226 1.6890686496 -1.4569956651
H 12.4428978408 1.2538307467 -0.3581119357
H 9.2242235418 -1.9859703551 0.6655830602
H 6.7942059438 -2.1124340884 0.6475129063
H 4.6668360228 -2.3531164784 -0.3995262702
H 2.0546715654 -1.8353745342 -0.3400231272
H 1.6501187184 3.0357669889 -0.0464283252
H -1.7604531202 -1.9623295812 0.2760769304
H -4.3636507915 -2.5167152363 0.3215880177
H -6.3256876304 1.7261856038 0.7364485498
H -8.7538104931 1.8556608857 0.6944253171
H -10.9736602637 -1.5598256596 -1.4995742522
H -12.2712444739 -1.0279205145 -0.4064389726
H -11.0195373825 -2.1445239803 0.1852540926
H -10.8876060094 1.3687091980 1.4076508626
H -12.1909971630 0.9599800799 0.2687843592
H -10.8226357510 1.9568810702 -0.2752559600
H -8.9212102424 -2.2333298904 -0.7330087394
H -6.4895286500 -2.3228949292 -0.7133811799
H 6.5674055439 1.9070697519 -0.8695523548
H 8.9933606779 2.0756319131 -0.8278885499
58
step=27 E=-2401.205853934787 Eh
C 11.4872299166 -0.9618638518 0.4269295756
N 10.7074541065 0.1418733183 -0.0765336624
C 11.3534863082 1.3825052250 -0.4275895150
C 9.3311542810 0.0591303866 -0.0889406307
C 8.6600458755 -1.1151665903 0.3179396580
C 7.2745008061 -1.1903691767 0.3008544429
C 6.4808782770 -0.1165193332 -0.1234555656
C 5.0124535930 -0.2259506362 -0.1481540450
C 4.2404738871 -1.3551130177 -0.2697445400
C 2.8427116373 -1.0862950464 -0.2472506039
C 2.5604773378 0.2473651757 -0.1120210622
C 1.2305353495 0.8608465588 -0.0641778834
C 0.9502153314 2.2022695438 -0.0343474614
S -0.7459820109 2.4493321962 0.0202932394
C -0.9752148609 0.7274462066 -0.0123479309
C -2.2999164152 0.1133463685 0.0255532062
C -2.5613978194 -1.2255321845 0.1703202670
C -3.9523145088 -1.5126338945 0.1853275856
C -4.7404811491 -0.3936626600 0.0503026551
C -6.2096599497 -0.3059678598 0.0205266283
C -6.8927355113 0.8561123686 0.4014174582
C -8.2783197646 0.9306623693 0.3832084020
C -9.0612429456 -0.1733567268 -0.0200450579
N -10.4367366149 -0.1104754606 -0.0395390292
C -11.2030252749 -1.2580631322 -0.4595034765
C -11.1065445916 1.1031292631 0.3596141147
C -8.3721500254 -1.3453505579 -0.4045483583
C -6.9860358817 -1.3994152114 -0.3855254304
S -3.7623180487 1.0223237891 -0.1115095135
N 0.1280083009 0.0429837713 -0.0539275307
S 4.0106258472 1.1775533122 0.0059036390
C 7.1466163394 1.0492561357 -0.5225340466
C 8.5313874934 1.1454178401 -0.5051677981
H 11.2676420303 -1.1860347687 1.4878204179
H 12.5547006733 -0.7189562352 0.3488265734
H 11.3134934720 -1.8860729290 -0.1521930283
H 11.0676173789 2.2133830548 0.2445565246
H 11.1153525357 1.6920481931 -1.4606992895
H 12.4418914860 1.2572527166 -0.3626017786
H 9.2240523439 -1.9820979195 0.6640907445
H 6.7940757156 -2.1100430871 0.6472065438
H 4.6667187786 -2.3519745433 -0.3977891377
H 2.0545450634 -1.8347906012 -0.3378078620
H 1.6502534222 3.0369095814 -0.0463054796
H -1.7620539430 -1.9603104217 0.2759327278
H -4.3654625046 -2.5137369026 0.3210166676
H -6.3257490510 1.7300707365 0.7380744508
H -8.7537281030 1.8610053549 0.6957511778
H -10.9761082929 -1.5523773402 -1.5005043917
H -12.2731056696 -1.0206090937 -0.4064321679
H -11.0218019469 -2.1382346112 0.1839158680
H -10.8875732250 1.3740174227 1.4086685842
H -12.1916622338 0.9663171740 0.2700415845
H -10.8233765879 1.9631978232 -0.2739181901
H -8.9232154813 -2.2269358969 -0.7339046581
H -6.4917664161 -2.3182483434 -0.7140579559
H 6.5658875785 1.9096755096 -0.8704147609
H 8.9918745754 2.0791912109 -0.8298472090
58
step=28 E=-2401.205855298842 Eh
C 11.4872749361 -0.9584491700 0.4234911996
N 10.7068952915 0.1451663890 -0.0792469593
C 11.3528295095 1.3856399043 -0.4309647043
C 9.3306007878 0.0621173256 -0.0909359587
C 8.6603676964 -1.1125116155 0.3163657248
C 7.2748577743 -1.1885051551 0.3001036603
C 6.4803837676 -0.1151362886 -0.1237922309
C 5.0119886526 -0.2252900799 -0.1478281609
C 4.2397033951 -1.3543073868 -0.2686931457
C 2.8418829150 -1.0858720598 -0.2457950731
C 2.5596582071 0.2478270867 -0.1110102207
C 1.2298548513 0.8615426612 -0.0629701826
C 0.9501983444 2.2030971926 -0.0332384499
S -0.7458726401 2.4508804782 0.0212680073
C -0.9758928198 0.7290235948 -0.0109787118
C -2.3007724348 0.1153250595 0.0269211360
C -2.5632639528 -1.2234166550 0.1710449456
C -3.9541873016 -1.5103631142 0.1859037636
C -4.7415590838 -0.3907688125 0.0512604304
C -6.2106571568 -0.3024013639 0.0212210366
C -6.8935703697 0.8597437732 0.4022573964
C -8.2791107439 0.9347834341 0.3835907603
C -9.0621172143 -0.1689403416 -0.0202164812
N -10.4375606985 -0.1053243338 -0.0400297011
C -11.2038754366 -1.2526645944 -0.4604869537
C -11.1069976758 1.1083610167 0.3594897398
C -8.3733650463 -1.3410745663 -0.4048388169
C -6.9872960232 -1.3954365849 -0.3853908670
S -3.7627503818 1.0249490230 -0.1094993090
N 0.1270329978 0.0440966268 -0.0524394887
S 4.0099181461 1.1780553771 0.0059237107
C 7.1453044736 1.0509830812 -0.5232121439
C 8.5300386221 1.1480058657 -0.5066719488
H 11.2684571716 -1.1828066017 1.4845027350
H 12.5546289433 -0.7152819739 0.3447208230
H 11.3133270953 -1.8825977070 -0.1556391446
H 11.0674638333 2.2166579850 0.2411954441
H 11.1140781605 1.6949834521 -1.4639912817
H 12.4412596433 1.2602866699 -0.3666431180
H 9.2250846222 -1.9790870974 0.6622097070
H 6.7952012816 -2.1084650204 0.6467186154
H 4.6659015693 -2.3511841571 -0.3965325942
H 2.0537853908 -1.8344871145 -0.3358076856
H 1.6505865116 3.0374264224 -0.0453247378
H -1.7642554871 -1.9585821986 0.2762331859
H -4.3677504429 -2.5113800324 0.3209511013
H -6.3264866950 1.7334801908 0.7393097591
H -8.7543020972 1.8651810834 0.6962409067
H -10.9767321547 -1.5466686530 -1.5014934596
H -12.2739290244 -1.0151431950 -0.4074251929
H -11.0228291255 -2.1330386193 0.1827341924
H -10.8878459394 1.3789809746 1.4085429612
H -12.1921530873 0.9719393716 0.2698491295
H -10.8236230025 1.9684763063 -0.2739238628
H -8.9245664056 -2.2223923259 -0.7346803260
H -6.4932400998 -2.3143311397 -0.7140521945
H 6.5639072418 1.9110695908 -0.8707501817
H 8.9897893447 2.0820433074 -0.8315725776
58
step=29 E=-2401.205856429105 Eh
C 11.4861854834 -0.9582520875 0.4194478869
N 10.7060761465 0.1459687338 -0.0823750985
C 11.3524597941 1.3859355714 -0.4350481032
C 9.3297271813 0.0637072016 -0.0930669701
C 8.6588251125 -1.1103946357 0.3146768207
C 7.2732626705 -1.1856876578 0.2993799550
C 6.4792715328 -0.1118017295 -0.1240636394
C 5.0107954127 -0.2209723363 -0.1473057163
C 4.2381605113 -1.3498381618 -0.2673566498
C 2.8404418186 -1.0809908892 -0.2440471233
C 2.5588876900 0.2529213421 -0.1098133932
C 1.2291214740 0.8666805216 -0.0617053775
C 0.9495717001 2.2082443787 -0.0321701626
S -0.7464948221 2.4561117630 0.0220783559
C -0.9766882365 0.7342485445 -0.0096991588
C -2.3015105677 0.1204173119 0.0281277157
C -2.5637260076 -1.2184523018 0.1715519717
C -3.9545828986 -1.5057081670 0.1862321776
C -4.7421949112 -0.3862270875 0.0520526168
C -6.2112986822 -0.2981654826 0.0217982637
C -6.8944915456 0.8637506962 0.4030090943
C -8.2800408129 0.9385752058 0.3839895776
C -9.0628145798 -0.1651505512 -0.0202502287
N -10.4382913235 -0.1017534733 -0.0403896344
C -11.2044981866 -1.2490171747 -0.4611758770
C -11.1079881785 1.1116580993 0.3594975681
C -8.3737427739 -1.3370557164 -0.4049932415
C -6.9876644545 -1.3912148487 -0.3852867644
S -3.7636856416 1.0298096078 -0.1077007887
N 0.1262413561 0.0493089006 -0.0509362443
S 4.0094090886 1.1829048402 0.0060800935
C 7.1448174929 1.0538181760 -0.5238671987
C 8.5296197901 1.1501265205 -0.5082682545
H 11.2681375381 -1.1826698276 1.4806074413
H 12.5536222053 -0.7157436875 0.3398307316
H 11.3111399219 -1.8821781180 -0.1597012330
H 11.0682442594 2.2173088969 0.2371512871
H 11.1129282550 1.6951457002 -1.4679410378
H 12.4408702430 1.2599268784 -0.3717171234
H 9.2232165891 -1.9773029679 0.6601937475
H 6.7932902264 -2.1053694149 0.6462943638
H 4.6640041107 -2.3469060701 -0.3948898342
H 2.0520366339 -1.8293626421 -0.3334387715
H 1.6500001000 3.0425337578 -0.0443740769
H -1.7645579697 -1.9535047717 0.2762844270
H -4.3679179039 -2.5069028545 0.3206154735
H -6.3276617206 1.7375323578 0.7403742511
H -8.7553937558 1.8688396952 0.6967656986
H -10.9773063258 -1.5427023371 -1.5022451740
H -12.2745729753 -1.0116155722 -0.4079481458
H -11.0233579638 -2.1295531813 0.1818143223
H -10.8887342438 1.3821453991 1.4085426932
H -12.1931247747 0.9749937433 0.2699067838
H -10.8249447067 1.9719673333 -0.2738270926
H -8.9246914420 -2.2183694415 -0.7352504436
H -6.4934259335 -2.3099567126 -0.7140997495
H 6.5637687774 1.9142755851 -0.8710359682
H 8.9897187436 2.0839003157 -0.8334310078
58
step=30 E=-2401.205857625675 Eh
C 11.4853356056 -0.9564245899 0.4141636272
N 10.7050695687 0.1482246746 -0.0864739265
C 11.3514661201 1.3878622164 -0.4402795345
C 9.3287003249 0.0663595617 -0.0959144787
C 8.6578217781 -1.1075467466 0.3124350733
C 7.2722187027 -1.1823316732 0.2982650956
C 6.4781413630 -0.1082579325 -0.1245632026
C 5.0096142137 -0.2169548429 -0.1467857934
C 4.2366686212 -1.3457188243 -0.2658097766
C 2.8390393436 -1.0764625115 -0.2419246669
C 2.5579022933 0.2576036670 -0.1083332099
C 1.2282750031 0.8716610938 -0.0600684989
C 0.9488426174 2.2132534208 -0.0307689910
S -0.7472002261 2.4613571137 0.0233109442
C -0.9775951850 0.7395283996 -0.0079834695
C -2.3025086934 0.1258898245 0.0297467952
C -2.5646757765 -1.2131021504 0.1722341660
C -3.9555746014 -1.5001964084 0.1866664175
C -4.7431823507 -0.3806431332 0.0531633494
C -6.2122874971 -0.2926408070 0.0226590635
C -6.8956116877 0.8691242595 0.4040598294
C -8.2811587372 0.9439924538 0.3845741335
C -9.0638250353 -0.1596005377 -0.0202460090
N -10.4393081575 -0.0962198603 -0.0408682569
C -11.2054429148 -1.2433619778 -0.4621367617
C -11.1091368949 1.1170016389 0.3593755837
C -8.3746092666 -1.3313809388 -0.4051183527
C -6.9885218393 -1.3855577267 -0.3850289567
S -3.7646432419 1.0354893433 -0.1053224735
N 0.1252687547 0.0544592756 -0.0490149836
S 4.0087000703 1.1873124264 0.0062183187
C 7.1437299147 1.0571541186 -0.5248701764
C 8.5285700277 1.1530349499 -0.5104047665
H 11.2683467344 -1.1810673183 1.4754910879
H 12.5527723925 -0.7142542507 0.3335012011
H 11.3093344141 -1.8801312721 -0.1650578545
H 11.0683161302 2.2195328319 0.2320006675
H 11.1108464637 1.6968542860 -1.4729927537
H 12.4399069276 1.2614993074 -0.3781678819
H 9.2222317588 -1.9746220116 0.6575196649
H 6.7922691174 -2.1018839597 0.6455536803
H 4.6621840053 -2.3429757516 -0.3930122357
H 2.0503827815 -1.8246677525 -0.3305419147
H 1.6493558567 3.0474720167 -0.0431482429
H -1.7655298736 -1.9482776043 0.2763570863
H -4.3689564145 -2.5014860888 0.3201764377
H -6.3289167589 1.7428363368 0.7418345301
H -8.7565684895 1.8741910648 0.6974807523
H -10.9781058144 -1.5367235643 -1.5032666136
H -12.2755334472 -1.0060172785 -0.4088992188
H -11.0243714032 -2.1241117811 0.1805907245
H -10.8898181073 1.3872799847 1.4084545183
H -12.1942647068 0.9802292650 0.2697772866
H -10.8262807025 1.9775078780 -0.2737834090
H -8.9254347532 -2.2125739649 -0.7359071808
H -6.4942057476 -2.3042001300 -0.7140094424
H 6.5626835333 1.9178107578 -0.8715594470
H 8.9886871985 2.0866955362 -0.8358879673
58
step=31 E=-2401.205858186673 Eh
C 11.4848957461 -0.9551194774 0.4113555982
N 10.7045396543 0.1497479579 -0.0886484615
C 11.3509128087 1.3892608035 -0.4429304673
C 9.3281626025 0.0680246678 -0.0975100505
C 8.6573346828 -1.1058219238 0.3110743123
C 7.2717158797 -1.1803673462 0.2974270366
C 6.4775902312 -0.1061908235 -0.1250676075
C 5.0090589345 -0.2148504558 -0.1467481546
C 4.2360537025 -1.3436272202 -0.2652523736
C 2.8384408857 -1.0743059260 -0.2410422030
C 2.5573516013 0.2597963603 -0.1077430254
C 1.2277730512 0.8739501832 -0.0593780434
C 0.9483822134 2.2155587778 -0.0301962194
S -0.7476467542 2.4637695207 0.0238355106
C -0.9780908696 0.7419552215 -0.0072200961
C -2.3030533838 0.1284380674 0.0304845586
C -2.5653119721 -1.2105854953 0.1724991990
C -3.9562424730 -1.4975472821 0.1868551123
C -4.7437750998 -0.3778985134 0.0537207444
C -6.2128717952 -0.2897809310 0.0231294231
C -6.8961037243 0.8720198107 0.4045714869
C -8.2816447052 0.9470279557 0.3848692304
C -9.0643509231 -0.1564426341 -0.0201790390
N -10.4398098765 -0.0928149009 -0.0409995971
C -11.2059144727 -1.2398998346 -0.4624817359
C -11.1095567557 1.1204225662 0.3593469506
C -8.3752535836 -1.3282830776 -0.4050755723
C -6.9891726547 -1.3825713305 -0.3847887459
S -3.7651176332 1.0382127953 -0.1042156331
N 0.1247316400 0.0568088688 -0.0481728622
S 4.0082132802 1.1894823702 0.0061395410
C 7.1431104642 1.0591909777 -0.5255916293
C 8.5279687874 1.1548013593 -0.5116223490
H 11.2683957182 -1.1799512742 1.4727405494
H 12.5523276362 -0.7130806785 0.3302333149
H 11.3084694199 -1.8786832700 -0.1679706820
H 11.0682317287 2.2210342756 0.2294186598
H 11.1097893350 1.6981930345 -1.4755474721
H 12.4393702861 1.2627629418 -0.3813846476
H 9.2217632669 -1.9729824704 0.6559177121
H 6.7917757635 -2.0998709990 0.6448602516
H 4.6614977435 -2.3409336491 -0.3923174169
H 2.0497421356 -1.8225113797 -0.3292705276
H 1.6489312459 3.0497455073 -0.0426722085
H -1.7662264747 -1.9458723384 0.2763096642
H -4.3696907326 -2.4988626718 0.3199652215
H -6.3293766476 1.7456508438 0.7425007063
H -8.7570017358 1.8772535578 0.6977910672
H -10.9784712012 -1.5331695146 -1.5036201903
H -12.2760060795 -1.0025464675 -0.4093453292
H -11.0249373070 -2.1207259174 0.1801691218
H -10.8901855236 1.3906171545 1.4084380066
H -12.1946956546 0.9837282205 0.2697804726
H -10.8266798964 1.9809650002 -0.2737576105
H -8.9261295585 -2.2093703214 -0.7360686672
H -6.4949062654 -2.3012242944 -0.7138098122
H 6.5620520871 1.9199473416 -0.8720252106
H 8.9880974317 2.0884160233 -0.8372169989
58
step=32 E=-2401.205858446750 Eh
C 11.4848476032 -0.9542376134 0.4101437196
N 10.7043652202 0.1506594441 -0.0895891556
C 11.3506700444 1.3901579391 -0.4440384184
C 9.3279900796 0.0688871593 -0.0982184691
C 8.6573566493 -1.1050309092 0.3104633141
C 7.2717393901 -1.1796519356 0.2970513021
C 6.4774175009 -0.1055506505 -0.1252750859
C 5.0088870971 -0.2142771829 -0.1467447976
C 4.2358601381 -1.3430610684 -0.2650484614
C 2.8382496595 -1.0737357043 -0.2407035532
C 2.5571497568 0.2603707695 -0.1075087448
C 1.2275976036 0.8745760617 -0.0590929188
C 0.9482723441 2.2162007377 -0.0299488706
S -0.7477429334 2.4645061747 0.0240823623
C -0.9782588587 0.7427040788 -0.0068926969
C -2.3032648507 0.1292827588 0.0308050598
C -2.5656722701 -1.2097302233 0.1726187063
C -3.9566291692 -1.4965691777 0.1869515980
C -4.7440539903 -0.3768256736 0.0539814198
C -6.2131421229 -0.2885430298 0.0233631658
C -6.8963234380 0.8732884021 0.4048063912
C -8.2818579610 0.9484302911 0.3850116694
C -9.0646350383 -0.1549514726 -0.0201333306
N -10.4400884238 -0.0912409527 -0.0410751391
C -11.2062661366 -1.2382440222 -0.4626452989
C -11.1097813141 1.1220154640 0.3592937015
C -8.3755944725 -1.3268278509 -0.4050234768
C -6.9895212972 -1.3812407915 -0.3846491216
S -3.7652463531 1.0392124902 -0.1037364730
N 0.1245227978 0.0574880575 -0.0478277551
S 4.0080316763 1.1900541204 0.0061123803
C 7.1427846068 1.0598924426 -0.5258810799
C 8.5276365058 1.1556151702 -0.5121546496
H 11.2685638185 -1.1791771745 1.4715487201
H 12.5522579480 -0.7121649142 0.3288371019
H 11.3083245530 -1.8777503182 -0.1692371218
H 11.0681299196 2.2219486139 0.2283472931
H 11.1093403803 1.6990694869 -1.4766137894
H 12.4391397673 1.2636575957 -0.3827092851
H 9.2219153167 -1.9721555905 0.6551884180
H 6.7919378863 -2.0992028930 0.6445454224
H 4.6612826577 -2.3403807257 -0.3920682726
H 2.0495493189 -1.8219544534 -0.3287811676
H 1.6488646765 3.0503499032 -0.0424627381
H -1.7666615941 -1.9451145701 0.2762955633
H -4.3701632631 -2.4978707355 0.3198984691
H -6.3295525279 1.7468636085 0.7428026364
H -8.7571496009 1.8786896514 0.6979334290
H -10.9788013359 -1.5314901114 -1.5037882174
H -12.2763419510 -1.0008067361 -0.4095615721
H -11.0253935637 -2.1191128366 0.1799740578
H -10.8904088248 1.3921710692 1.4083963313
H -12.1949253926 0.9853695777 0.2697238850
H -10.8268617929 1.9825634900 -0.2737820143
H -8.9265178417 -2.2078524822 -0.7361019087
H -6.4953192563 -2.2999229657 -0.7136812102
H 6.5615966093 1.9206131986 -0.8721887639
H 8.9876325466 2.0892771670 -0.8377960788
