67
0 1 Before single point calculation
C 8.267703033 1.241267404 -0.186864318
N 6.914018478 1.779710853 -0.310452132
C 6.852707004 3.032342882 -1.074580842
C 5.785607283 0.966107061 -0.100026066
C 5.885904455 -0.412585457 -0.262675918
C 4.782439748 -1.235907255 -0.195403511
C 3.508011967 -0.739660989 0.047264163
C 2.364395789 -1.618788043 0.055415400
C 2.375375988 -2.962837453 -0.009967202
C 1.140198602 -3.708216712 -0.015284119
C 1.166610251 -5.099653067 -0.043475908
C -0.013008473 -5.799015666 -0.047507710
C -1.188802920 -5.093556742 -0.025921651
C -1.154750551 -3.702225104 -0.001268369
C -2.385804338 -2.950183035 0.012110522
C -2.365994308 -1.604640455 0.008669219
C -3.503641588 -0.718396647 0.020411450
C -4.791941033 -1.220509238 0.152462076
C -5.899329998 -0.399932490 0.154617443
C -5.791589555 0.980868003 0.018184853
N -6.953862104 1.765486051 -0.098376032
C -7.086671667 2.836596579 -1.094378760
C -8.236197445 1.299211515 0.427097475
C -4.472845826 1.553294935 -0.043595222
C -4.276372557 2.946979941 -0.018417080
C -3.027443364 3.491494608 -0.101360702
C -1.911787015 2.664693823 -0.200321796
C -2.057982252 1.307975614 -0.180749840
C -3.332454696 0.706203618 -0.076494953
N -0.005373123 -3.013027926 0.006084998
C 3.358424387 0.669862288 0.289633092
C 2.113012567 1.248210679 0.622995776
C 2.002594762 2.575369028 0.921300518
C 3.130948677 3.390844172 0.917139133
C 4.350164844 2.869450627 0.593413394
C 4.499586390 1.514851243 0.240821862
H 8.546032091 0.706076947 -1.093011629
H 8.981011987 2.047592887 -0.024917759
H 8.325981484 0.561400430 0.661251354
H 7.116562335 3.877254245 -0.441038309
H 7.552185171 2.995642295 -1.907986400
H 5.855887622 3.184740172 -1.484162956
H 6.844615242 -0.837976288 -0.500918401
H 4.911453238 -2.289422844 -0.367923406
H 1.392498165 -1.165697190 0.103691684
H 3.300994275 -3.505505812 -0.048143814
H 2.111651491 -5.614880896 -0.060260604
H -0.015953762 -6.876688577 -0.068012708
H -2.136660683 -5.603845436 -0.030433421
H -3.314464984 -3.488850428 0.011312762
H -1.390340732 -1.157883623 -0.002248210
H -4.934638957 -2.281752728 0.250449092
H -6.878901018 -0.839629690 0.218118947
H -6.207055153 2.878240842 -1.734093380
H -7.222062075 3.798171579 -0.602532838
H -7.950924229 2.650278385 -1.729613742
H -8.091778116 0.802694120 1.384993957
H -8.909846469 2.140771666 0.579287884
H -8.699691794 0.602809961 -0.269447372
H -5.126250306 3.591941413 0.109196852
H -2.901545409 4.561926870 -0.085700868
H -0.929830391 3.101227576 -0.281476512
H -1.179033659 0.694760265 -0.249075147
H 1.232723212 0.634661748 0.669068012
H 1.044393684 2.992201253 1.184975684
H 3.040775291 4.431719852 1.182453002
H 5.223063792 3.493318207 0.651332461
