55
0 1 Before single point calculation
N 6.769169176 2.599634725 0.070660500
N -6.780088058 2.584784015 0.091141203
N 0.003413489 -2.424827383 -0.004156518
C 5.716688019 1.718427514 0.027608800
C -5.720296358 1.713716236 0.037576760
C 3.534943292 -0.104045263 0.008973999
C -3.529731136 -0.097968572 0.002823118
C 4.387933801 2.167910912 -0.019025420
C 5.918131712 0.329181932 0.055466340
C -4.393728339 2.168047171 0.098773951
C -5.914414871 0.326171776 -0.055982858
C 3.337511416 1.280340283 -0.025665180
C 4.859532529 -0.549422828 0.048269250
C -3.338934817 1.285483301 0.082381544
C -4.851772330 -0.547134876 -0.069762847
C 2.389782342 -0.980159899 0.000075043
C -2.382275989 -0.971403244 -0.000747331
C 1.153229750 -3.093198897 0.009396298
C -1.149070446 -3.088429330 -0.018335859
C 8.123465888 2.112352216 -0.013813473
C 6.537295836 4.005544302 -0.153856979
C -8.122869881 2.102312077 -0.116582836
C -6.548274268 4.006661877 0.031754163
C 2.381497799 -2.322763134 0.022314588
C -2.374722198 -2.314015058 -0.027410209
C 1.191141906 -4.494634639 0.010964578
C -1.192817764 -4.489737897 -0.021818278
C -0.002309748 -5.192802197 -0.005904141
H 4.168396941 3.222655986 -0.049340093
H 6.916850645 -0.075705873 0.079994071
H -4.179276965 3.222663556 0.159407496
H -6.910291039 -0.080877925 -0.121101436
H 2.327384835 1.664091615 -0.061163721
H 5.067667544 -1.608482200 0.070131085
H -2.330776925 1.672798940 0.132611499
H -5.054184975 -1.604783148 -0.144970200
H 1.424150737 -0.492143326 -0.029145029
H -1.417258432 -0.482279504 0.028571367
H 8.319680265 1.597820443 -0.962386056
H 8.331475242 1.422137890 0.806882442
H 8.814526785 2.948026864 0.071481799
H 7.484370614 4.539108545 -0.122044847
H 5.893942723 4.417616548 0.627721942
H 6.069085414 4.193593489 -1.127148655
H -8.384807998 1.361959889 0.643414051
H -8.248081242 1.647136967 -1.106417489
H -8.822830506 2.930379818 -0.030235471
H -7.499555411 4.531675873 0.080158418
H -6.039375415 4.301530498 -0.893685122
H -5.942267206 4.332044929 0.881213582
H 3.296738454 -2.897710225 0.047932557
H -3.291210126 -2.886982105 -0.052473023
H 2.138476712 -5.013003993 0.023968171
H -2.142435539 -5.003946307 -0.034942622
H -0.004493318 -6.274719321 -0.006566242
55
step=1 E=-1132.046013782581 Eh
N 6.7691686556 2.5996346699 0.0706604985
N -6.7800880633 2.5847839729 0.0911412018
N 0.0034134893 -2.4248272331 -0.0041565177
C 5.7166877621 1.7184275688 0.0276087997
C -5.7202963644 1.7137161507 0.0375767626
C 3.5349430127 -0.1040452674 0.0089739988
C -3.5297311199 -0.0979685721 0.0028231181
C 4.3879338504 2.1679108135 -0.0190254183
C 5.9181319106 0.3291819391 0.0554663391
C -4.3937282298 2.1680472407 0.0987739480
C -5.9144150122 0.3261717410 -0.0559828584
C 3.3375113716 1.2803403195 -0.0256651794
C 4.8595321833 -0.5494228007 0.0482692486
C -3.3389347419 1.2854832181 0.0823815409
C -4.8517720747 -0.5471348502 -0.0697628499
C 2.3897822289 -0.9801598792 0.0000750426
C -2.3822757708 -0.9714032611 -0.0007473305
C 1.1532296779 -3.0931988101 0.0093962981
C -1.1490703503 -3.0884291296 -0.0183358581
C 8.1234659724 2.1123521012 -0.0138134726
C 6.5372955951 4.0055441112 -0.1538569776
C -8.1228694944 2.1023120908 -0.1165828303
C -6.5482741648 4.0066620033 0.0317541623
C 2.3814977586 -2.3227630993 0.0223145881
C -2.3747221524 -2.3140149904 -0.0274102100
C 1.1911419019 -4.4946345026 0.0109645783
C -1.1928176632 -4.4897378036 -0.0218182780
C -0.0023097474 -5.1928018999 -0.0059041413
H 4.1683968103 3.2226560933 -0.0493400916
H 6.9168506854 -0.0757058698 0.0799940679
H -4.1792768525 3.2226634330 0.1594074909
H -6.9102907613 -0.0808779209 -0.1211014321
H 2.3273846103 1.6640915893 -0.0611637202
H 5.0676672908 -1.6084820919 0.0701310885
H -2.3307768214 1.6727989093 0.1326114916
H -5.0541848344 -1.6047831908 -0.1449701978
H 1.4241507195 -0.4921433100 -0.0291450276
H -1.4172583504 -0.4822795103 0.0285713677
H 8.3196802360 1.5978203724 -0.9623859915
H 8.3314749663 1.4221378829 0.8068824419
H 8.8145262922 2.9480268689 0.0714817921
H 7.4843705319 4.5391081430 -0.1220448493
H 5.8939430403 4.4176161516 0.6277218823
H 6.0690850547 4.1935935938 -1.1271486182
H -8.3848073718 1.3619598504 0.6434140398
H -8.2480816121 1.6471369314 -1.1064174500
H -8.8228298764 2.9303798302 -0.0302354713
H -7.4995551449 4.5316756003 0.0801584092
H -6.0393752945 4.3015304622 -0.8936850785
H -5.9422668153 4.3320447040 0.8812135411
H 3.2967383628 -2.8977100538 0.0479325596
H -3.2912101014 -2.8869819224 -0.0524730217
H 2.1384765218 -5.0130036712 0.0239681716
H -2.1424355505 -5.0039463799 -0.0349426190
H -0.0044933178 -6.2747191754 -0.0065662425
55
step=2 E=-1132.049597194711 Eh
N 6.8914825193 2.5706424571 0.0702018517
N -6.9011173652 2.5553423281 0.0918738159
N 0.0019470311 -2.3838375001 -0.0041886736
C 5.8217868039 1.7072510518 0.0276109428
C -5.8257663163 1.7003524752 0.0387081033
C 3.6007151089 -0.0813710101 0.0088161204
C -3.5979844360 -0.0794762057 0.0038602517
C 4.4985534636 2.1821366485 -0.0187473221
C 5.9992550369 0.3109859150 0.0549486555
C -4.5044331249 2.1787758864 0.1005193511
C -5.9974448914 0.3061471599 -0.0557040530
C 3.4302541269 1.3083449130 -0.0253179104
C 4.9200694608 -0.5492467682 0.0476293452
C -3.4328026312 1.3089529992 0.0839237055
C -4.9151436103 -0.5498158260 -0.0692937798
C 2.4339303617 -0.9413514521 -0.0001793254
C -2.4295814390 -0.9375728449 0.0002726740
C 1.1572311147 -3.0490693217 0.0087076109
C -1.1543915548 -3.0470491983 -0.0181569075
C 8.2351649642 2.0506569979 -0.0151362188
C 6.6838759863 3.9819042448 -0.1536434087
C -8.2344651096 2.0436155629 -0.1173401794
C -6.6908107967 3.9820742490 0.0334123980
C 2.3986833113 -2.2841243764 0.0213739969
C -2.3945546197 -2.2802955187 -0.0266507023
C 1.1945220003 -4.4517317904 0.0098100379
C -1.1944811895 -4.4496628734 -0.0220700443
C -0.0006216553 -5.1521503848 -0.0068210544
H 4.2968878135 3.2445237705 -0.0488460622
H 6.9941085156 -0.1135974241 0.0791289202
H -4.3068293110 3.2406880342 0.1617233875
H -6.9898514527 -0.1194995735 -0.1215533771
H 2.4232673266 1.7113608196 -0.0605777064
H 5.1099072024 -1.6160873774 0.0691460693
H -2.4274603997 1.7144502430 0.1347183360
H -5.1002628857 -1.6149376393 -0.1451916672
H 1.4736984845 -0.4344635880 -0.0290007610
H -1.4698658741 -0.4298030066 0.0299346583
H 8.4207469293 1.5295189156 -0.9655770663
H 8.4306720831 1.3537768609 0.8068928438
H 8.9473572445 2.8720943939 0.0695502192
H 7.6429936484 4.4994209202 -0.1226961175
H 6.0474038703 4.4090169597 0.6295756839
H 6.2167239144 4.1808100470 -1.1285282185
H -8.4849851329 1.2959576702 0.6435140943
H -8.3510371207 1.5838029882 -1.1092296468
H -8.9533645587 2.8590427337 -0.0320084144
H -7.6527899633 4.4931565665 0.0810582490
H -6.1841512324 4.2878351743 -0.8931148782
H -6.0895137657 4.3200026270 0.8850239421
H 3.3102614681 -2.8726833568 0.0464842678
H -3.3067622042 -2.8678581929 -0.0517883077
H 2.1457132869 -4.9712835578 0.0222704360
H -2.1467703788 -4.9672135135 -0.0350201626
H -0.0015261800 -6.2376591864 -0.0078321997
55
step=3 E=-1132.050578931358 Eh
N 6.8469095446 2.5805258067 0.0622768626
N -6.8611188788 2.5613165947 0.0979359068
N 0.0089323597 -2.4174559167 -0.0020302705
C 5.7752884401 1.7095090672 0.0355084963
C -5.7789420115 1.7048072265 0.0563487505
C 3.5494229661 -0.0816874033 0.0093139835
C -3.5403129515 -0.0713035078 0.0138824664
C 4.4456224662 2.1868226275 -0.0311633632
C 5.9587076844 0.3048844581 0.0723871504
C -4.4518836167 2.1880944832 0.1328748703
C -5.9506081375 0.3033777626 -0.0648409871
C 3.3660090268 1.3084842013 -0.0394768664
C 4.8700271848 -0.5584923877 0.0622850778
C -3.3662632855 1.3172051259 0.1140853973
C -4.8567709308 -0.5532238210 -0.0801641660
C 2.3715377766 -0.9631128371 -0.0015994942
C -2.3579847668 -0.9467662171 0.0113114292
C 1.1585312736 -3.0974840585 0.0126602027
C -1.1465669908 -3.0872868739 -0.0183460846
C 8.2014357908 2.0784176629 -0.0108078873
C 6.6059242132 3.9863180663 -0.1733460807
C -8.1978824905 2.0572201697 -0.1275991013
C -6.6275555429 3.9871774833 0.0630775501
C 2.4056303471 -2.3039703062 0.0257000785
C -2.3898660780 -2.2874827927 -0.0257714924
C 1.2022950352 -4.5028373444 0.0137769124
C -1.1998926214 -4.4923287875 -0.0231890738
C -0.0018651512 -5.2012921072 -0.0056476495
H 4.2457067237 3.2614293262 -0.0746876413
H 6.9647832084 -0.1226518341 0.1080143585
H -4.2587558281 3.2618904139 0.2108394678
H -6.9527162561 -0.1269503068 -0.1485618507
H 2.3461558204 1.7133573927 -0.0883833459
H 5.0599955360 -1.6391052939 0.0947147284
H -2.3493513434 1.7268639466 0.1811768732
H -5.0384545474 -1.6317364978 -0.1734266161
H 1.3819240992 -0.4841227990 -0.0361860153
H -1.3700340213 -0.4648180471 0.0512488274
H 8.4124051848 1.5407153570 -0.9579887847
H 8.4231075698 1.3886180035 0.8231955731
H 8.9043119737 2.9209201980 0.0664567732
H 7.5635871744 4.5261930299 -0.1445413463
H 5.9541670611 4.4260376693 0.6039341009
H 6.1323194657 4.1787649119 -1.1573911646
H -8.4774684276 1.2956634621 0.6229795452
H -8.3225125665 1.6022021827 -1.1312747583
H -8.9164632031 2.8849987652 -0.0382705724
H -7.5928929972 4.5121650138 0.1065232531
H -6.1003026319 4.3128930290 -0.8566589201
H -6.0285843843 4.3231436463 0.9293002824
H 3.3515366573 -2.8630733194 0.0544517981
H -3.3367961329 -2.8448343433 -0.0541746759
H 2.1655135507 -5.0262823119 0.0276932794
H -2.1672160403 -5.0081077975 -0.0374199362
H -0.0065983371 -6.2980485511 -0.0067129754
55
step=4 E=-1132.052317810619 Eh
N 6.9978572125 2.5417299334 0.0609944012
N -7.0082379902 2.5196767898 0.0993438238
N 0.0029708379 -2.3563460444 -0.0021109143
C 5.9024667856 1.7010276516 0.0343096528
C -5.9079670632 1.6867964060 0.0582430822
C 3.6397904265 -0.0513024201 0.0089073706
C -3.6376804608 -0.0546296068 0.0149356356
C 4.5833569782 2.2026753147 -0.0323726276
C 6.0546904289 0.2940437465 0.0715163249
C -4.5909601140 2.1922866403 0.1352709135
C -6.0530193433 0.2837266210 -0.0636718683
C 3.4910551131 1.3419115108 -0.0400219401
C 4.9515959735 -0.5485548088 0.0618104860
C -3.4949346239 1.3363719897 0.1157504274
C -4.9464233394 -0.5540025816 -0.0793702872
C 2.4433532032 -0.9080096938 -0.0018541622
C -2.4387428123 -0.9079158205 0.0121136201
C 1.1578975398 -3.0275369040 0.0118689808
C -1.1519865128 -3.0272941521 -0.0179816151
C 8.3294675329 1.9856108971 -0.0125772704
C 6.8072502114 3.9547201612 -0.1729894536
C -8.3276281979 1.9765180973 -0.1285557569
C -6.8127824652 3.9504264371 0.0660808880
C 2.4158214611 -2.2494047584 0.0244917122
C -2.4096260243 -2.2490053471 -0.0247642181
C 1.2012186359 -4.4317493493 0.0126620563
C -1.1955517495 -4.4314987169 -0.0231252741
C 0.0027243521 -5.1371752747 -0.0063202667
H 4.4020295135 3.2795645647 -0.0762640133
H 7.0515498983 -0.1528410178 0.1072575220
H -4.4143589892 3.2679780271 0.2139256346
H -7.0468530982 -0.1634445572 -0.1478405197
H 2.4805400483 1.7669666532 -0.0889715952
H 5.1234309320 -1.6310050417 0.0946012753
H -2.4864418492 1.7636850680 0.1832554357
H -5.1122397834 -1.6337846611 -0.1734328909
H 1.4717763479 -0.3967361980 -0.0363410460
H -1.4682124256 -0.3950223349 0.0524371076
H 8.5180289516 1.4396738865 -0.9592893582
H 8.5232898761 1.2877066774 0.8211090987
H 9.0657385079 2.7984524765 0.0641504439
H 7.7829131093 4.4604010695 -0.1437680658
H 6.1719077912 4.4165269170 0.6043275481
H 6.3408940509 4.1650903719 -1.1563363416
H -8.5859156107 1.2072374232 0.6211668616
H -8.4367093712 1.5180013209 -1.1319937549
H -9.0704688996 2.7821137818 -0.0408217067
H -7.7911709983 4.4498462104 0.1085036684
H -6.2931213758 4.2908001104 -0.8521322102
H -6.2244833566 4.3014311411 0.9330284884
H 3.3437333845 -2.8353296675 0.0528538288
H -3.3373282312 -2.8352475321 -0.0532574274
H 2.1653796221 -4.9514926045 0.0259804458
H -2.1598725501 -4.9509393393 -0.0370138197
H 0.0026196726 -6.2332433761 -0.0076220883
55
step=5 E=-1132.052136507971 Eh
N 7.0532804798 2.5121796989 0.0608843474
N -7.0671818902 2.4927372415 0.1068964634
N 0.0083891092 -2.3297290240 -0.0075037122
C 5.9687301958 1.6594029811 0.0303482083
C -5.9709002954 1.6564649296 0.0611471213
C 3.6921631621 -0.0610784787 0.0000519684
C -3.6842868285 -0.0541231448 0.0144956867
C 4.6614763507 2.1805114783 -0.0527177508
C 6.1122689823 0.2541074945 0.0831196481
C -4.6642135080 2.1804493236 0.1377945897
C -6.1050882070 0.2544962788 -0.0599488189
C 3.5633457984 1.3321285765 -0.0624230070
C 4.9978083456 -0.5689425092 0.0702567490
C -3.5620992839 1.3372864160 0.1164905280
C -4.9876822037 -0.5642654819 -0.0776598746
C 2.4898860261 -0.9009416061 -0.0131249733
C -2.4791414607 -0.8900382495 0.0085359050
C 1.1637129084 -2.9988085733 0.0079898208
C -1.1514885889 -2.9909716099 -0.0192862102
C 8.3976490122 1.9911094717 0.0114013425
C 6.8412852826 3.9186537103 -0.1816251676
C -8.3914519882 1.9635269155 -0.1105703972
C -6.8659659928 3.9209412195 0.0785025647
C 2.4285066911 -2.2407643076 0.0197395388
C -2.4145201935 -2.2297150226 -0.0260084320
C 1.2012694301 -4.4017436481 0.0134068979
C -1.1955069360 -4.3937466584 -0.0201291887
C 0.0005262019 -5.0995805435 -0.0025376639
H 4.4951874969 3.2563712911 -0.1063440035
H 7.1004953247 -0.2020829137 0.1346279779
H -4.5013920793 3.2550885115 0.2177839658
H -7.0908251642 -0.2028634228 -0.1413999845
H 2.5618549733 1.7675483553 -0.1242872000
H 5.1550501244 -1.6493823424 0.1153451954
H -2.5622851918 1.7759000873 0.1827665631
H -5.1400715053 -1.6421396668 -0.1725577036
H 1.5321989806 -0.3718007932 -0.0551243236
H -1.5226998411 -0.3582535684 0.0439161148
H 8.6118597754 1.4435459139 -0.9260636526
H 8.5945297057 1.3073341642 0.8527863460
H 9.1110904998 2.8206569576 0.0913602504
H 7.8030697433 4.4445338617 -0.1403747436
H 6.1862922799 4.3666504783 0.5840414657
H 6.3859168429 4.1144037356 -1.1705128694
H -8.6474294895 1.1967491807 0.6389820714
H -8.5113695195 1.5094235312 -1.1121992531
H -9.1256586684 2.7729318716 -0.0151033514
H -7.8378283892 4.4271112660 0.1294507869
H -6.3509725276 4.2597505295 -0.8400836080
H -6.2704548083 4.2612241151 0.9418403179
H 3.3409288037 -2.8440139268 0.0542121074
H -3.3273532581 -2.8327942925 -0.0518770333
H 2.1603933360 -4.9236748777 0.0280699322
H -2.1576575473 -4.9101463186 -0.0312541769
H -0.0030949301 -6.1924541906 -0.0004031931
55
step=6 E=-1132.052578289087 Eh
N 7.0495426123 2.5167605259 0.0599148384
N -7.0614318136 2.4915505867 0.1082749118
N 0.0051597785 -2.3293936091 -0.0072747057
C 5.9506611292 1.6820017247 0.0284339201
C -5.9565123436 1.6662423737 0.0637236449
C 3.6751184860 -0.0491550566 -0.0011018287
C -3.6719515061 -0.0520382971 0.0161254201
C 4.6392384543 2.1943100282 -0.0559664279
C 6.0912751754 0.2767625267 0.0827654013
C -4.6468331841 2.1839919706 0.1409037823
C -6.0895769202 0.2644302218 -0.0583815772
C 3.5427648017 1.3435029114 -0.0652648462
C 4.9819724729 -0.5531540738 0.0704707758
C -3.5460697433 1.3388791952 0.1192500084
C -4.9761530149 -0.5596224166 -0.0767592531
C 2.4759524979 -0.8928453608 -0.0139939729
C -2.4695974314 -0.8912625668 0.0097377455
C 1.1607818531 -2.9967193892 0.0082160633
C -1.1515556429 -2.9949123616 -0.0188798115
C 8.3748170336 1.9494909660 0.0111654148
C 6.8770002282 3.9289922480 -0.1806945162
C -8.3736346443 1.9351887041 -0.1129261747
C -6.8841475838 3.9228862689 0.0818340808
C 2.4214679013 -2.2327649489 0.0196998201
C -2.4122902506 -2.2310439724 -0.0253658120
C 1.2017694314 -4.3998509219 0.0138258594
C -1.1938230055 -4.3980612888 -0.0196388711
C 0.0034097084 -5.1022193797 -0.0020137382
H 4.4675775389 3.2687366978 -0.1111061572
H 7.0807731436 -0.1766682590 0.1354844762
H -4.4801220963 3.2576134942 0.2217817132
H -7.0763868601 -0.1904668015 -0.1404308116
H 2.5402933924 1.7764566428 -0.1282684558
H 5.1440063570 -1.6328330538 0.1170440004
H -2.5453327792 1.7752526531 0.1861057930
H -5.1321059162 -1.6369154818 -0.1726168752
H 1.5160641696 -0.3675958386 -0.0565668525
H -1.5109435133 -0.3632496353 0.0452951231
H 8.5704234487 1.3945747508 -0.9260449087
H 8.5473548265 1.2591461162 0.8526689757
H 9.1168566182 2.7533897175 0.0913969725
H 7.8529301936 4.4278686945 -0.1376639340
H 6.2341429422 4.3943941479 0.5847258545
H 6.4284191478 4.1391223831 -1.1696876198
H -8.6158888676 1.1632067285 0.6359162086
H -8.4812518476 1.4784945369 -1.1147757919
H -9.1249659157 2.7289069494 -0.0198180990
H -7.8644090245 4.4126684875 0.1310254003
H -6.3728452876 4.2714743533 -0.8351084315
H -6.2965870684 4.2725964806 0.9467676242
H 3.3367891654 -2.8315512120 0.0545510677
H -3.3273506163 -2.8307344466 -0.0512749938
H 2.1624021352 -4.9187665307 0.0285006224
H -2.1551688034 -4.9157604844 -0.0306520456
H 0.0025641752 -6.1950597732 0.0002341524
55
step=7 E=-1132.052565365891 Eh
N 7.0952937432 2.4917785293 0.0595768975
N -7.1026801710 2.4656935387 0.1127990785
N -0.0017135407 -2.3069674704 -0.0076462901
C 5.9832496969 1.6736578928 0.0285524829
C -5.9875022789 1.6532138349 0.0679474791
C 3.6858267033 -0.0295192560 -0.0022313594
C -3.6870175780 -0.0450916008 0.0174523326
C 4.6778501964 2.2026115367 -0.0633175042
C 6.1037555942 0.2656392575 0.0892409189
C -4.6816363012 2.1829231724 0.1479014597
C -6.1055884554 0.2493079148 -0.0591342611
C 3.5693718634 1.3649956299 -0.0728898823
C 4.9851401241 -0.5536341592 0.0764564775
C -3.5718969032 1.3471583415 0.1248721536
C -4.9856900177 -0.5679086273 -0.0790139918
C 2.4747330382 -0.8604609304 -0.0159370111
C -2.4756216586 -0.8756861140 0.0107092215
C 1.1549667858 -2.9725805886 0.0087599868
C -1.1528922636 -2.9820410574 -0.0195100337
C 8.4167928796 1.9127874427 0.0193253776
C 6.9377688248 3.9049001453 -0.1870344335
C -8.4136377495 1.9044169523 -0.1088826627
C -6.9343507487 3.8984313694 0.0918751939
C 2.4131024577 -2.2001002569 0.0202984833
C -2.4142023690 -2.2153107886 -0.0259238276
C 1.2007197454 -4.3764847681 0.0151075437
C -1.1901829828 -4.3862678539 -0.0198063541
C 0.0080934110 -5.0901796790 -0.0011505451
H 4.5202523468 3.2805638879 -0.1241038253
H 7.0886485754 -0.2003276922 0.1477683135
H -4.5249471027 3.2594115107 0.2323794187
H -7.0895050825 -0.2146544591 -0.1440407355
H 2.5709365368 1.8106016411 -0.1416575991
H 5.1336400211 -1.6368388835 0.1285437539
H -2.5734589972 1.7926293011 0.1944601486
H -5.1321053577 -1.6480545488 -0.1785617996
H 1.5176464951 -0.3268433003 -0.0616065891
H -1.5181987327 -0.3419099420 0.0479367833
H 8.6132275265 1.3507390723 -0.9148711625
H 8.5821549669 1.2241130097 0.8652181398
H 9.1658785018 2.7119307324 0.0988253648
H 7.9202674969 4.3931865741 -0.1416418463
H 6.2963288493 4.3823948557 0.5739450408
H 6.4951381362 4.1174530748 -1.1795695662
H -8.6540210340 1.1279188497 0.6376444159
H -8.5221256360 1.4499236439 -1.1129521412
H -9.1686497788 2.6959312714 -0.0120627178
H -7.9195383042 4.3807656116 0.1426243706
H -6.4247878577 4.2557454987 -0.8241566296
H -6.3491682653 4.2511571443 0.9587810305
H 3.3301488696 -2.7990428239 0.0574290390
H -3.3302350270 -2.8163827424 -0.0524360083
H 2.1658432993 -4.8903180401 0.0305590132
H -2.1516883814 -4.9069921307 -0.0309929111
H 0.0124563079 -6.1846035501 0.0016079799
55
step=8 E=-1132.052622132410 Eh
N 7.0970822048 2.4855955554 0.0587207704
N -7.1089259238 2.4574650862 0.1246370244
N 0.0069565172 -2.3083918297 -0.0099092440
C 5.9880968902 1.6638218996 0.0276177162
C -5.9923144960 1.6476417866 0.0763554535
C 3.6917178786 -0.0414297497 -0.0062210576
C -3.6860958633 -0.0436522207 0.0176907184
C 4.6840157019 2.1902928870 -0.0880232831
C 6.1106868334 0.2573523491 0.1102434749
C -4.6884563427 2.1804259008 0.1623867892
C -6.1075770076 0.2448696030 -0.0622087066
C 3.5764347531 1.3516986486 -0.0981930904
C 4.9914557903 -0.5604987287 0.0955120441
C -3.5764807484 1.3479593739 0.1353619270
C -4.9840829426 -0.5667451325 -0.0857533564
C 2.4824593233 -0.8750142484 -0.0216985010
C -2.4733679535 -0.8722126771 0.0091686165
C 1.1613746064 -2.9786538557 0.0103658790
C -1.1489338839 -2.9762173318 -0.0225573443
C 8.4183053937 1.9054883193 0.0434818314
C 6.9405085826 3.8956025511 -0.2046529011
C -8.4148181069 1.8868658789 -0.1009109712
C -6.9483317545 3.8911371166 0.1187402281
C 2.4237281546 -2.2143617659 0.0234406815
C -2.4112379879 -2.2116383286 -0.0302921581
C 1.2029196732 -4.3823212374 0.0197353027
C -1.1920020372 -4.3798729021 -0.0206630412
C 0.0047037722 -5.0857963450 0.0018736897
H 4.5264669733 3.2669711720 -0.1667214147
H 7.0949271106 -0.2067830198 0.1883632965
H -4.5349480115 3.2565074100 0.2554562397
H -7.0898713825 -0.2212055981 -0.1526537915
H 2.5790508911 1.7957980125 -0.1854109513
H 5.1402779581 -1.6422415593 0.1659630157
H -2.5799176260 1.7960598781 0.2106845683
H -5.1275170806 -1.6460916608 -0.1940033548
H 1.5248232687 -0.3436390847 -0.0773312201
H -1.5168688396 -0.3374163351 0.0488549984
H 8.6261603960 1.3297935285 -0.8797142239
H 8.5728250882 1.2289604270 0.9010161927
H 9.1668206118 2.7051695169 0.1207147322
H 7.9212298790 4.3863423457 -0.1512893437
H 6.2882758030 4.3799510338 0.5425614698
H 6.5108035531 4.0972839613 -1.2050000367
H -8.6484014515 1.1026136784 0.6395122045
H -8.5199256873 1.4390231452 -1.1082018510
H -9.1764642992 2.6709644592 0.0020962901
H -7.9359064397 4.3678374592 0.1731636582
H -6.4396587393 4.2607986773 -0.7927457363
H -6.3662310468 4.2383362490 0.9898245677
H 3.3392785157 -2.8148168840 0.0685800649
H -3.3265501329 -2.8134775583 -0.0580580304
H 2.1651402981 -4.9011776872 0.0383679173
H -2.1551290183 -4.8972188748 -0.0325295391
H 0.0035461054 -6.1799031229 0.0066503457
55
step=9 E=-1132.052620299605 Eh
N 7.0901039261 2.4844499170 0.0631065128
N -7.0967528309 2.4527936660 0.1371004988
N 0.0011149983 -2.3200682651 -0.0127369923
C 5.9820102730 1.6620152661 0.0282246982
C -5.9861281688 1.6354945806 0.0841411031
C 3.6884283340 -0.0463608530 -0.0112816449
C -3.6872514081 -0.0625066524 0.0177587259
C 4.6789228685 2.1843482870 -0.1095635295
C 6.1049203320 0.2573055079 0.1299074700
C -4.6809721714 2.1636891801 0.1692829734
C -6.1077094392 0.2340253375 -0.0580122235
C 3.5726180439 1.3450032458 -0.1218926199
C 4.9874912129 -0.5619607695 0.1121991718
C -3.5721894030 1.3280709814 0.1387002093
C -4.9871633832 -0.5805502259 -0.0854739485
C 2.4814982717 -0.8815652995 -0.0291997964
C -2.4785751461 -0.8952192936 0.0066730161
C 1.1587631147 -2.9846565525 0.0098932455
C -1.1520992986 -2.9926335713 -0.0235250910
C 8.4096828372 1.9018639426 0.0739528625
C 6.9397758728 3.8921110663 -0.2138747817
C -8.4087638618 1.8948411419 -0.0809308182
C -6.9261008949 3.8848711385 0.1377610196
C 2.4201234569 -2.2205709331 0.0230773594
C -2.4170356474 -2.2346800169 -0.0317359067
C 1.2040369179 -4.3879279019 0.0228741720
C -1.1897483605 -4.3962421761 -0.0179367590
C 0.0095027830 -5.0970007081 0.0064594419
H 4.5207212517 3.2589074577 -0.2035753309
H 7.0880949810 -0.2040176149 0.2263475953
H -4.5238453738 3.2383256506 0.2648531917
H -7.0911298918 -0.2279634595 -0.1481487073
H 2.5765967698 1.7866293867 -0.2260494018
H 5.1368417387 -1.6415923759 0.1989690285
H -2.5746860343 1.7722507127 0.2137536235
H -5.1344113575 -1.6582261721 -0.1966771948
H 1.5250913010 -0.3505495775 -0.0930482746
H -1.5217578840 -0.3623511631 0.0438740699
H 8.6288437947 1.3146498779 -0.8386232040
H 8.5498840957 1.2361109542 0.9416819548
H 9.1585642239 2.7003768416 0.1517637964
H 7.9195436479 4.3823307300 -0.1500391828
H 6.2774494787 4.3822339094 0.5197540938
H 6.5252906360 4.0859266051 -1.2215815777
H -8.6437205511 1.1113301616 0.6590414239
H -8.5241532664 1.4507879679 -1.0881653255
H -9.1624158046 2.6849498932 0.0289530827
H -7.9092074313 4.3687161610 0.1991095680
H -6.4192283229 4.2547963565 -0.7739480098
H -6.3375912130 4.2225347226 1.0076405338
H 3.3342089514 -2.8212576714 0.0749944266
H -3.3303095207 -2.8383418581 -0.0575355048
H 2.1676018632 -4.9025315186 0.0434411333
H -2.1501977404 -4.9169688643 -0.0283224895
H 0.0131153531 -6.1904094839 0.0141349392
55
step=10 E=-1132.052631579697 Eh
N 7.0957373365 2.4782077959 0.0638665986
N -7.1041866361 2.4492953652 0.1382472824
N 0.0044521326 -2.3172752410 -0.0120632598
C 5.9875759928 1.6558643684 0.0288982391
C -5.9893264313 1.6377500494 0.0856744946
C 3.6920811224 -0.0489945559 -0.0109279396
C -3.6863152007 -0.0561421063 0.0191482565
C 4.6854584477 2.1804745310 -0.1097749228
C 6.1087060368 0.2509269492 0.1312741251
C -4.6848905170 2.1681195807 0.1712079826
C -6.1067445367 0.2359399108 -0.0569264956
C 3.5780609529 1.3424923886 -0.1222136153
C 4.9901724123 -0.5669187919 0.1134239910
C -3.5743547124 1.3346732170 0.1405657471
C -4.9850083149 -0.5770527753 -0.0845305881
C 2.4839556182 -0.8825085343 -0.0289622269
C -2.4759462363 -0.8864468476 0.0080213515
C 1.1601108733 -2.9851328369 0.0101604536
C -1.1500536930 -2.9874127038 -0.0227708985
C 8.4169398894 1.8991639551 0.0760211849
C 6.9434695413 3.8854475036 -0.2138910602
C -8.4117995779 1.8813631457 -0.0806579108
C -6.9431042713 3.8825284963 0.1397232349
C 2.4217609542 -2.2215014906 0.0232507408
C -2.4130520476 -2.2259200608 -0.0305984374
C 1.2028458839 -4.3886067153 0.0227969952
C -1.1906514507 -4.3910507523 -0.0174791917
C 0.0067522714 -5.0951549546 0.0064919851
H 4.5289694901 3.2553117088 -0.2043279656
H 7.0912096250 -0.2117115216 0.2284167352
H -4.5296709116 3.2430031248 0.2671262942
H -7.0892188241 -0.2281407995 -0.1474584781
H 2.5826074917 1.7853790936 -0.2269937327
H 5.1377595810 -1.6468185971 0.2008161322
H -2.5777462715 1.7809420561 0.2159426450
H -5.1302124185 -1.6550415225 -0.1961824652
H 1.5279993388 -0.3505299568 -0.0927435827
H -1.5198728408 -0.3521868054 0.0453261537
H 8.6382958769 1.3118979929 -0.8360060672
H 8.5584000936 1.2344228739 0.9443670378
H 9.1636286462 2.6998026178 0.1537199557
H 7.9225141654 4.3771366250 -0.1496370146
H 6.2798804959 4.3748652778 0.5191240480
H 6.5293327922 4.0781626273 -1.2219853013
H -8.6412341512 1.0959961731 0.6591676754
H -8.5230848758 1.4364652602 -1.0880108640
H -9.1715905640 2.6656794467 0.0287127923
H -7.9295209352 4.3597158092 0.2006611369
H -6.4381597177 4.2562923702 -0.7715144781
H -6.3574329209 4.2237797222 1.0101533290
H 3.3355669890 -2.8226714312 0.0750761794
H -3.3268361119 -2.8288009908 -0.0564490628
H 2.1654218568 -4.9051712419 0.0430376873
H -2.1523925182 -4.9094723394 -0.0277910692
H 0.0077182467 -6.1886384061 0.0139083699
55
step=11 E=-1132.052634586557 Eh
N 7.0968067784 2.4691352583 0.0685842267
N -7.1074454647 2.4376114180 0.1463917439
N 0.0116821174 -2.3253556693 -0.0072206914
C 5.9882738489 1.6474440994 0.0321772957
C -5.9910269658 1.6282856498 0.0936690771
C 3.6933920967 -0.0597530217 -0.0089530454
C -3.6831194713 -0.0592635514 0.0265098646
C 4.6864076880 2.1704974926 -0.1168750061
C 6.1092938751 0.2429796539 0.1439567218
C -4.6883087211 2.1627476405 0.1827969840
C -6.1045495666 0.2262783887 -0.0530247793
C 3.5797354316 1.3310199476 -0.1295224290
C 4.9912946936 -0.5759296743 0.1255660890
C -3.5756446291 1.3316404003 0.1517994181
C -4.9802744008 -0.5835657452 -0.0809315993
C 2.4855700295 -0.8946003535 -0.0273235446
C -2.4701582542 -0.8866907574 0.0153981432
C 1.1648677108 -2.9976474188 0.0133011008
C -1.1447564346 -2.9922148180 -0.0174951340
C 8.4173092347 1.8885177118 0.0948385909
C 6.9470488546 3.8755910144 -0.2147096069
C -8.4156433840 1.8700910433 -0.0712121697
C -6.9471605234 3.8709479865 0.1545363178
C 2.4266793858 -2.2336779940 0.0259971656
C -2.4055707944 -2.2260989523 -0.0241582148
C 1.2052111493 -4.4013523576 0.0245902528
C -1.1895136229 -4.3958271011 -0.0130403126
C 0.0061990133 -5.1032508334 0.0091360259
H 4.5294911222 3.2448756034 -0.2192210521
H 7.0918368265 -0.2185195048 0.2495085452
H -4.5362760644 3.2381977218 0.2815919302
H -7.0857968247 -0.2404221435 -0.1469087039
H 2.5842752223 1.7727861727 -0.2420256003
H 5.1391788400 -1.6554099226 0.2214072944
H -2.5800633348 1.7805167656 0.2299432801
H -5.1222522898 -1.6619494816 -0.1962355271
H 1.5283084207 -0.3642760674 -0.0918200649
H -1.5147243908 -0.3506722733 0.0533580361
H 8.6450150501 1.2943782887 -0.8114034466
H 8.5518199997 1.2295867998 0.9690760769
H 9.1644903856 2.6890356283 0.1722872527
H 7.9260877456 4.3670026173 -0.1445762826
H 6.2780425734 4.3679124398 0.5117885406
H 6.5404927971 4.0656557287 -1.2266508487
H -8.6441909900 1.0830599384 0.6675067176
H -8.5290025559 1.4270867580 -1.0793994822
H -9.1752769425 2.6545053111 0.0409692521
H -7.9342151698 4.3470689773 0.2175864265
H -6.4424517095 4.2495146814 -0.7551225472
H -6.3616160603 4.2090227668 1.0266321711
H 3.3416180056 -2.8336657164 0.0785835709
H -3.3203217642 -2.8280083055 -0.0503195370
H 2.1666791239 -4.9207605488 0.0433809901
H -2.1530689710 -4.9115736841 -0.0228418042
H 0.0036113351 -6.1970262056 0.0156924197
55
step=12 E=-1132.052643418409 Eh
N 7.0938007238 2.4689904870 0.0699329684
N -7.1015389460 2.4384321572 0.1479352492
N 0.0073571347 -2.3295454661 -0.0059484587
C 5.9858939484 1.6465160246 0.0334900591
C -5.9862920244 1.6275541320 0.0953994194
C 3.6911974002 -0.0602766035 -0.0077873954
C -3.6819382655 -0.0650563845 0.0282442298
C 4.6841034775 2.1696537501 -0.1164068000
C 6.1071910512 0.2420709571 0.1460441496
C -4.6821980057 2.1588102486 0.1849427120
C -6.1027346283 0.2257908878 -0.0517153388
C 3.5771804629 1.3304347427 -0.1291285204
C 4.9889833824 -0.5766709636 0.1275884072
C -3.5710641998 1.3255697784 0.1539766073
C -4.9802208256 -0.5865949504 -0.0796270402
C 2.4831955814 -0.8950133791 -0.0262150091
C -2.4707057058 -0.8951609760 0.0170668175
C 1.1623012012 -2.9989675917 0.0141926951
C -1.1476147582 -2.9990629208 -0.0161813381
C 8.4151862681 1.8902983157 0.0976250796
C 6.9423352687 3.8752338299 -0.2137864505
C -8.4098777542 1.8711523182 -0.0699134708
C -6.9400419634 3.8717053844 0.1569508530
C 2.4238946374 -2.2340988377 0.0268322549
C -2.4094436168 -2.2346467651 -0.0226758278
C 1.2045264710 -4.4025983115 0.0251140759
C -1.1898050853 -4.4027364181 -0.0119532424
C 0.0073375027 -5.1077457324 0.0098245896
H 4.5274398954 3.2441012083 -0.2193756790
H 7.0897558995 -0.2194257967 0.2522602342
H -4.5278003203 3.2339695321 0.2840182270
H -7.0850736937 -0.2387546493 -0.1460142663
H 2.5816664205 1.7721808195 -0.2422404369
H 5.1366034629 -1.6562301364 0.2241297954
H -2.5744226046 1.7722893217 0.2324248309
H -5.1245334651 -1.6647231422 -0.1953484258
H 1.5259359822 -0.3645266748 -0.0904573936
H -1.5139101743 -0.3613176514 0.0550403439
H 8.6444342805 1.2957469726 -0.8080169767
H 8.5500922599 1.2322438973 0.9725538738
H 9.1611542445 2.6920502515 0.1749067902
H 7.9207635756 4.3679145015 -0.1431251858
H 6.2721583826 4.3669024824 0.5121793425
H 6.5361593003 4.0645608649 -1.2260819711
H -8.6387582566 1.0840572707 0.6687469327
H -8.5231602996 1.4281965483 -1.0781887025
H -9.1693944572 2.6557790789 0.0421354671
H -7.9268084744 4.3485652207 0.2199209938
H -6.4347196612 4.2504144323 -0.7523762791
H -6.3544923812 4.2089312349 1.0294540014
H 3.3390824037 -2.8339120997 0.0792192120
H -3.3246977744 -2.8360545734 -0.0488716561
H 2.1671045038 -4.9201134664 0.0435673910
H -2.1524239662 -4.9204201437 -0.0216818178
H 0.0072808936 -6.2016192972 0.0161624539
55
step=13 E=-1132.052650099071 Eh
N 7.0936495875 2.4611577379 0.0754466677
N -7.0998419627 2.4296857010 0.1551779162
N 0.0084366642 -2.3384778852 0.0002308108
C 5.9861416779 1.6383391522 0.0385120836
C -5.9850128122 1.6183742051 0.1033088194
C 3.6924084510 -0.0689274442 -0.0030275747
C -3.6817277590 -0.0751844610 0.0366734191
C 4.6846028382 2.1603597638 -0.1165369224
C 6.1074368095 0.2343827427 0.1560217740
C -4.6807445011 2.1484689228 0.1954558587
C -6.1018942680 0.2169672300 -0.0460735831
C 3.5777987854 1.3212417711 -0.1292597816
C 4.9897677133 -0.5848955965 0.1375717847
C -3.5698957671 1.3150993986 0.1647541952
C -4.9800174658 -0.5961033084 -0.0737830538
C 2.4847949958 -0.9037169495 -0.0215234072
C -2.4710326181 -0.9056224238 0.0254779933
C 1.1636418188 -3.0074811065 0.0182294415
C -1.1465474014 -3.0079879694 -0.0097244388
C 8.4151531123 1.8835519340 0.1115271964
C 6.9427001473 3.8670223117 -0.2099636585
C -8.4083881933 1.8630399228 -0.0622950808
C -6.9382883606 3.8628208412 0.1688946935
C 2.4251961135 -2.2428280137 0.0305083483
C -2.4090756871 -2.2450534128 -0.0149421068
C 1.2057783988 -4.4110529467 0.0271436292
C -1.1877094431 -4.4116214616 -0.0068469303
C 0.0091548612 -5.1170296652 0.0126282521
H 4.5279560691 3.2342309591 -0.2235859720
H 7.0897362642 -0.2263378408 0.2664109702
H -4.5259043916 3.2232586616 0.2961027078
H -7.0842198886 -0.2467600286 -0.1426994558
H 2.5825728861 1.7622929481 -0.2461680293
H 5.1372488767 -1.6639137154 0.2386282102
H -2.5732526520 1.7611302186 0.2450534547
H -5.1246873596 -1.6737844665 -0.1917213685
H 1.5276424325 -0.3732368177 -0.0846400787
H -1.5144378933 -0.3717684730 0.0636074431
H 8.6485550690 1.2853395414 -0.7904542782
H 8.5465269697 1.2295145400 0.9899007640
H 9.1602151799 2.6860370328 0.1883531190
H 7.9204473455 4.3602676274 -0.1355910237
H 6.2692217368 4.3586424016 0.5128003195
H 6.5407194574 4.0552710086 -1.2239994772
H -8.6368905129 1.0754182547 0.6757805293
H -8.5222000605 1.4210812121 -1.0708003429
H -9.1675785428 2.6476952679 0.0506931647
H -7.9249544317 4.3395728672 0.2324008277
H -6.4322320644 4.2441604350 -0.7387655552
H -6.3535207386 4.1971620186 1.0429037216
H 3.3402121156 -2.8427299193 0.0818932888
H -3.3237540024 -2.8470872790 -0.0413182383
H 2.1683950252 -4.9282212487 0.0437039634
H -2.1500905267 -4.9294156970 -0.0161223289
H 0.0093241257 -6.2107844908 0.0176538767
55
step=14 E=-1132.052651950130 Eh
N 7.0906728010 2.4622051470 0.0759510988
N -7.0966606448 2.4304125163 0.1556224714
N 0.0081383866 -2.3413395748 0.0007664361
C 5.9837451671 1.6386149816 0.0390486065
C -5.9824655988 1.6182264939 0.1038155657
C 3.6910536426 -0.0703058112 -0.0024309563
C -3.6802892468 -0.0769702448 0.0372730094
C 4.6818896618 2.1598234728 -0.1160550947
C 6.1059664308 0.2347409137 0.1566418131
C -4.6778688636 2.1475033186 0.1960865297
C -6.1003145933 0.2168995518 -0.0456237220
C 3.5757538920 1.3198270328 -0.1287277552
C 4.9887927751 -0.5852479963 0.1382199218
C -3.5676766253 1.3132623743 0.1654145851
C -4.9789447811 -0.5969032301 -0.0732832192
C 2.4839018742 -0.9057845352 -0.0209259576
C -2.4700951186 -0.9081385491 0.0260935375
C 1.1634486751 -3.0100738774 0.0186321592
C -1.1466553303 -3.0110834236 -0.0092125085
C 8.4124874024 1.8853302494 0.1122326659
C 6.9388456433 3.8680107963 -0.2093655435
C -8.4057041992 1.8648744760 -0.0618081790
C -6.9339030771 3.8634202025 0.1695223168
C 2.4247169996 -2.2449318121 0.0309208357
C -2.4088706376 -2.2476206856 -0.0143587047
C 1.2059039005 -4.4136383358 0.0273794039
C -1.1878737342 -4.4147316607 -0.0064644637
C 0.0092871699 -5.1196712938 0.0128668562
H 4.5245029067 3.2335919743 -0.2231809101
H 7.0885679321 -0.2253463336 0.2670717206
H -4.5222853869 3.2221924557 0.2967708259
H -7.0829523541 -0.2461651268 -0.1423514406
H 2.5802431976 1.7602179214 -0.2456707889
H 5.1370139016 -1.6641616751 0.2393623481
H -2.5707357409 1.7586082667 0.2457896301
H -5.1243388640 -1.6744874766 -0.1912893361
H 1.5265040409 -0.3757243523 -0.0838882092
H -1.5131820129 -0.3748445355 0.0642281360
H 8.6462841326 1.2871338597 -0.7896598476
H 8.5441434878 1.2314721846 0.9907055410
H 9.1571048366 2.6882376059 0.1890035845
H 7.9162807705 4.3618666485 -0.1349033531
H 6.2650092172 4.3591670680 0.5133872281
H 6.5368088681 4.0560649078 -1.2234147708
H -8.6348668873 1.0774454904 0.6762750636
H -8.5199167149 1.4230101843 -1.0703121618
H -9.1642169356 2.6501889850 0.0511870675
H -7.9201759883 4.3409946182 0.2330208173
H -6.4274709762 4.2444355676 -0.7380660963
H -6.3489009899 4.1971723204 1.0436041927
H 3.3399456992 -2.8445281126 0.0821604404
H -3.3238319940 -2.8492227559 -0.0407578535
H 2.1685986391 -4.9306973222 0.0438185507
H -2.1501697785 -4.9327209416 -0.0157411771
H 0.0096913163 -6.2134233429 0.0177782067
55
step=15 E=-1132.052659301829 Eh
N 7.0890826766 2.4540500838 0.0834128933
N -7.0934220974 2.4200043261 0.1633372305
N 0.0089340905 -2.3533625870 0.0088059059
C 5.9825898442 1.6300111642 0.0466745848
C -5.9796646216 1.6072727783 0.1126349401
C 3.6907288575 -0.0801700582 0.0055813016
C -3.6781242462 -0.0888353071 0.0473309557
C 4.6805836105 2.1503620934 -0.1103935284
C 6.1054044878 0.2263550915 0.1664852398
C -4.6749532897 2.1360102712 0.2069562203
C -6.0979831039 0.2060885015 -0.0380284776
C 3.5749237976 1.3097799359 -0.1228021661
C 4.9885666871 -0.5941561571 0.1483557288
C -3.5651375949 1.3012808367 0.1768248737
C -4.9768452473 -0.6080969807 -0.0651140123
C 2.4838716921 -0.9160048046 -0.0129335947
C -2.4681298477 -0.9202290539 0.0361801140
C 1.1646392110 -3.0213636586 0.0241628968
C -1.1455512967 -3.0235244699 -0.0011599625
C 8.4110059008 1.8778132014 0.1243911627
C 6.9369551259 3.8600036939 -0.2009588629
C -8.4029070716 1.8552350638 -0.0534736652
C -6.9299343923 3.8528833473 0.1808290596
C 2.4254141044 -2.2552920460 0.0362623554
C -2.4076586909 -2.2597550586 -0.0047913048
C 1.2077080850 -4.4249103124 0.0302202570
C -1.1863564608 -4.4271997924 -0.0003895354
C 0.0113170106 -5.1313814206 0.0162143568
H 4.5227875551 3.2238984105 -0.2194218697
H 7.0881364845 -0.2331252197 0.2784923920
H -4.5190477112 3.2106005602 0.3084562338
H -7.0807023324 -0.2564800060 -0.1365290270
H 2.5792756781 1.7495139324 -0.2411681441
H 5.1370987256 -1.6728624671 0.2516404665
H -2.5680723878 1.7461365113 0.2585504424
H -5.1224282207 -1.6855424890 -0.1844717289
H 1.5261131260 -0.3862777860 -0.0734397214
H -1.5109626507 -0.3873560185 0.0742188429
H 8.6469657559 1.2772828136 -0.7753592611
H 8.5409673691 1.2263840979 1.0049842893
H 9.1551726947 2.6812293339 0.2003916178
H 7.9140176566 4.3542887154 -0.1243339134
H 6.2614918448 4.3502044362 0.5209545902
H 6.5366783682 4.0486602126 -1.2155861446
H -8.6322936384 1.0678939575 0.6846846089
H -8.5177255026 1.4134537293 -1.0619355228
H -9.1608914294 2.6410612885 0.0596460530
H -7.9160594115 4.3308057445 0.2442462633
H -6.4223125231 4.2356968261 -0.7253280749
H -6.3457036547 4.1843831501 1.0563163220
H 3.3411474156 -2.8543787780 0.0851274775
H -3.3228985543 -2.8609672060 -0.0312832519
H 2.1706201821 -4.9416987150 0.0443973153
H -2.1484055777 -4.9457222480 -0.0093522061
H 0.0122872469 -6.2251533675 0.0192991016
55
step=16 E=-1132.052660544747 Eh
N 7.0868588277 2.4540581314 0.0845564235
N -7.0913912516 2.4196933441 0.1644033180
N 0.0096348562 -2.3561596250 0.0098082595
C 5.9809499661 1.6292336822 0.0478606283
C -5.9779654869 1.6064834652 0.1137657955
C 3.6902386850 -0.0825199575 0.0068016623
C -3.6771743453 -0.0907240587 0.0484888767
C 4.6786069831 2.1487537377 -0.1093356972
C 6.1046999759 0.2256664806 0.1678300776
C -4.6729996559 2.1346358326 0.2081777945
C -6.0969106727 0.2053560426 -0.0369488113
C 3.5735479872 1.3073697158 -0.1217170132
C 4.9884098615 -0.5956254128 0.1497216314
C -3.5635827081 1.2993558547 0.1780493976
C -4.9761389474 -0.6093675694 -0.0640287919
C 2.4838907788 -0.9191392216 -0.0117440188
C -2.4674985128 -0.9226367875 0.0372928452
C 1.1651888488 -3.0244421864 0.0249696048
C -1.1450097390 -3.0260520620 -0.0002029511
C 8.4092249472 1.8788313494 0.1259254361
C 6.9336772838 3.8599347324 -0.1996467907
C -8.4011384811 1.8554514276 -0.0522445562
C -6.9272906942 3.8525089407 0.1822069853
C 2.4260073986 -2.2584594596 0.0371274119
C -2.4070811612 -2.2621636597 -0.0036993056
C 1.2080732871 -4.4280109025 0.0307559919
C -1.1860221608 -4.4297301980 0.0003544610
C 0.0115058407 -5.1341890579 0.0167306943
H 4.5201101091 3.2221947400 -0.2184992541
H 7.0877465440 -0.2331458643 0.2799451409
H -4.5165992748 3.2091642799 0.3097136010
H -7.0798552858 -0.2567555419 -0.1355228692
H 2.5775894269 1.7464106738 -0.2401790609
H 5.1376690141 -1.6742337169 0.2531587858
H -2.5662974695 1.7437454540 0.2598272121
H -5.1222282029 -1.6867533086 -0.1834531666
H 1.5258375014 -0.3898849132 -0.0720162670
H -1.5101959588 -0.3899860176 0.0752795740
H 8.6457872686 1.2782323354 -0.7736350938
H 8.5395647358 1.2277174501 1.0067129382
H 9.1527788376 2.6828392803 0.2018076961
H 7.9103624161 4.3549649335 -0.1228839449
H 6.2577654146 4.3495606092 0.5222618888
H 6.5333488787 4.0484032868 -1.2142985838
H -8.6308114958 1.0682401008 0.6859840284
H -8.5162367296 1.4136472895 -1.0606771194
H -9.1587863885 2.6416143939 0.0608816385
H -7.9132239536 4.3308487059 0.2456297092
H -6.4194204977 4.2352918072 -0.7238361392
H -6.3429767854 4.1835989613 1.0578126116
H 3.3418683242 -2.8574053082 0.0857317795
H -3.3223690359 -2.8633266083 -0.0301777453
H 2.1708909738 -4.9450125541 0.0447499669
H -2.1481718195 -4.9480924896 -0.0086130484
H 0.0122262559 -6.2279772294 0.0196238923
55
step=17 E=-1132.052664767464 Eh
N 7.0861205610 2.4478875695 0.0910345342
N -7.0899983820 2.4113154804 0.1706603314
N 0.0109141435 -2.3646362933 0.0154473326
C 5.9806402529 1.6225672531 0.0545248121
C -5.9766743035 1.5979953841 0.1203644006
C 3.6906903826 -0.0901664386 0.0135228813
C -3.6759688903 -0.0992251502 0.0552698622
C 4.6781266854 2.1415179110 -0.1033828317
C 6.1049685710 0.2191362923 0.1753651729
C -4.6717179092 2.1261541503 0.2152299580
C -6.0956741806 0.1969072994 -0.0305710245
C 3.5734718555 1.2996532617 -0.1157127007
C 4.9889956733 -0.6026243963 0.1572992374
C -3.5623423396 1.2908518612 0.1851465464
C -4.9748950598 -0.6178352099 -0.0576005034
C 2.4846743030 -0.9272253697 -0.0052726660
C -2.4662562715 -0.9310362298 0.0438003798
C 1.1665294185 -3.0328142704 0.0293872424
C -1.1437141117 -3.0345116989 0.0053387734
C 8.4086783265 1.8732997310 0.1346203975
C 6.9323446193 3.8539263081 -0.1919565679
C -8.3998745823 1.8469965331 -0.0449124001
C -6.9258827830 3.8441048517 0.1902478774
C 2.4272214401 -2.2666393693 0.0416905839
C -2.4057601580 -2.2705546616 0.0027304856
C 1.2095451372 -4.4363920691 0.0336907564
C -1.1846931419 -4.4381926021 0.0047419945
C 0.0129392297 -5.1425159960 0.0197270037
H 4.5192788634 3.2148394707 -0.2132709097
H 7.0881661691 -0.2392025424 0.2881207675
H -4.5153489603 3.2006714812 0.3169176797
H -7.0786217288 -0.2651308927 -0.1295013048
H 2.5773527033 1.7381796500 -0.2347337163
H 5.1386172616 -1.6811102891 0.2615702828
H -2.5650456253 1.7351708278 0.2671735717
H -5.1209277122 -1.6952034306 -0.1773318244
H 1.5264148891 -0.3981941369 -0.0641604492
H -1.5089710800 -0.3983312207 0.0813890759
H 8.6462940669 1.2714911488 -0.7638370969
H 8.5385045250 1.2234905346 1.0164771043
H 9.1518342655 2.6777288777 0.2098816141
H 7.9087253187 4.3494133514 -0.1143051909
H 6.2557878178 4.3425935076 0.5300194276
H 6.5324555566 4.0430521153 -1.2066489561
H -8.6291657893 1.0600779643 0.6937725010
H -8.5155379952 1.4047690386 -1.0530854858
H -9.1574378489 2.6332347301 0.0682361296
H -7.9118217385 4.3224215737 0.2537276785
H -6.4175926693 4.2278839188 -0.7151256789
H -6.3419106560 4.1742015716 1.0664760085
H 3.3432630360 -2.8654414329 0.0887155645
H -3.3210471222 -2.8717351052 -0.0235312116
H 2.1723584717 -4.9534391290 0.0465530435
H -2.1467860585 -4.9566680667 -0.0041225548
H 0.0137132544 -6.2363084722 0.0215813120
55
step=18 E=-1132.052667165795 Eh
N 7.0860361418 2.4436969179 0.0953932419
N -7.0894156498 2.4057532938 0.1748218035
N 0.0116029362 -2.3699020332 0.0190153003
C 5.9806143271 1.6183302080 0.0589556907
C -5.9760840689 1.5924604329 0.1246428028
C 3.6908011390 -0.0946463188 0.0179036696
C -3.6753968233 -0.1050118519 0.0594795321
C 4.6780429730 2.1370528526 -0.0993520337
C 6.1050551920 0.2149579934 0.1802699351
C -4.6710730833 2.1204608536 0.2196966454
C -6.0951449025 0.1914012543 -0.0264424625
C 3.5734565966 1.2951193629 -0.1116980281
C 4.9891339870 -0.6068793498 0.1621764170
C -3.5617930958 1.2850444221 0.1895503801
C -4.9743973113 -0.6233877745 -0.0535178715
C 2.4849173086 -0.9318744231 -0.0010837411
C -2.4657312665 -0.9368932032 0.0477975977
C 1.1673703819 -3.0378382225 0.0323297984
C -1.1428922357 -3.0400170051 0.0087991985
C 8.4087116959 1.8695124060 0.1402723873
C 6.9320679410 3.8498449963 -0.1868250789
C -8.3994057888 1.8414698435 -0.0400427177
C -6.9253586986 3.8385170900 0.1955010939
C 2.4278741836 -2.2713451150 0.0447713863
C -2.4051404324 -2.2764040083 0.0066672979
C 1.2107000603 -4.4414078058 0.0358225706
C -1.1835159900 -4.4437009832 0.0075387539
C 0.0142540820 -5.1478048165 0.0218194540
H 4.5191269555 3.2103206128 -0.2096179086
H 7.0882621073 -0.2432618947 0.2934173305
H -4.5146056295 3.1949494056 0.3215058642
H -7.0781081928 -0.2705682947 -0.1255162059
H 2.5773190235 1.7335099156 -0.2310435919
H 5.1388187362 -1.6853096989 0.2669034478
H -2.5644751620 1.7292857937 0.2716863661
H -5.1205267896 -1.7007171225 -0.1734201634
H 1.5265270420 -0.4030015152 -0.0592148570
H -1.5084454211 -0.4041752699 0.0851759660
H 8.6469478756 1.2669758643 -0.7575190101
H 8.5382611328 1.2204941512 1.0227687319
H 9.1516154804 2.6742065190 0.2151507079
H 7.9083405129 4.3454674315 -0.1086924409
H 6.2552373916 4.3380022069 0.5352503136
H 6.5324015584 4.0394562622 -1.2015089350
H -8.6284747210 1.0547434355 0.6989298739
H -8.5154795997 1.3989946844 -1.0480504504
H -9.1568773584 2.6277871082 0.0731615323
H -7.9113335542 4.3167465341 0.2590341498
H -6.4168550404 4.2229435187 -0.7094682052
H -6.3416052027 4.1680390765 1.0721020155
H 3.3440985299 -2.8699326205 0.0909025415
H -3.3203256525 -2.8777456965 -0.0194518530
H 2.1736274453 -4.9582476186 0.0481103025
H -2.1454885973 -4.9623883759 -0.0013227354
H 0.0152629523 -6.2415976803 0.0230906335
55
step=19 E=-1132.052668198993 Eh
N 7.0859133196 2.4418935263 0.0973831017
N -7.0891683262 2.4030755755 0.1767366359
N 0.0120008297 -2.3721305496 0.0206140986
C 5.9806378665 1.6163584107 0.0609832418
C -5.9758088373 1.5898495808 0.1265724317
C 3.6911288515 -0.0968687458 0.0199068733
C -3.6750650656 -0.1072865521 0.0613481641
C 4.6780503541 2.1349619146 -0.0975100312
C 6.1052475281 0.2130158847 0.1825124731
C -4.6708733423 2.1180054502 0.2217079779
C -6.0947588203 0.1887854340 -0.0245957365
C 3.5735948628 1.2928562498 -0.1098592588
C 4.9894785004 -0.6090131506 0.1644118853
C -3.5614726665 1.2827547419 0.1915248705
C -4.9739650672 -0.6259221632 -0.0517153947
C 2.4853495421 -0.9342527134 0.0008295018
C -2.4653357237 -0.9390612205 0.0495675543
C 1.1677400503 -3.0401336524 0.0336828617
C -1.1425252439 -3.0422085481 0.0103327243
C 8.4086179177 1.8678403909 0.1428220179
C 6.9317627575 3.8480842747 -0.1844869326
C -8.3991045919 1.8385768921 -0.0378298806
C -6.9252768544 3.8358468323 0.1979198175
C 2.4283064416 -2.2737386669 0.0462093282
C -2.4047539145 -2.2785692460 0.0083989083
C 1.2109852739 -4.4437030200 0.0368333854
C -1.1831965824 -4.4458874991 0.0087825529
C 0.0145252467 -5.1500758305 0.0227872282
H 4.5190255867 3.2081953702 -0.2079399763
H 7.0885121560 -0.2450360252 0.2958430384
H -4.5145527528 3.1925086391 0.3235860979
H -7.0776848621 -0.2732486465 -0.1237214885
H 2.5774046465 1.7310890461 -0.2293519465
H 5.1392796226 -1.6874051708 0.2693435227
H -2.5641890446 1.7270725174 0.2737091883
H -5.1199533700 -1.7032629349 -0.1716965427
H 1.5269220795 -0.4054163781 -0.0569961833
H -1.5080720976 -0.4062951589 0.0868686169
H 8.6471041549 1.2649684821 -0.7546728397
H 8.5380343654 1.2191674991 1.0256012817
H 9.1514347248 2.6726266377 0.2175275253
H 7.9079516894 4.3438397588 -0.1061632367
H 6.2547914692 4.3359696179 0.5376466331
H 6.5321581037 4.0378909318 -1.1991573269
H -8.6279483384 1.0518938635 0.7012667418
H -8.5152726129 1.3959696538 -1.0457646277
H -9.1566759254 2.6247929167 0.0753922479
H -7.9113095703 4.3139487789 0.2614813200
H -6.4167136418 4.2206253192 -0.7068631312
H -6.3416527335 4.1651617309 1.0746912258
H 3.3445132857 -2.8723758609 0.0919716124
H -3.3199494688 -2.8798961205 -0.0176638102
H 2.1738961781 -4.9605719882 0.0488976097
H -2.1451974665 -4.9645154519 -0.0000967189
H 0.0154875739 -6.2438689787 0.0238090265
55
step=20 E=-1132.052668727589 Eh
N 7.0858487208 2.4409688808 0.0984059340
N -7.0890074559 2.4017909290 0.1777143874
N 0.0121607590 -2.3733652619 0.0214132472
C 5.9805951651 1.6154113477 0.0620147000
C -5.9756606953 1.5885524834 0.1275514785
C 3.6911252757 -0.0978718071 0.0209074616
C -3.6749217741 -0.1086163174 0.0622787443
C 4.6779947488 2.1339522499 -0.0965709146
C 6.1052481110 0.2120795716 0.1836469962
C -4.6707184882 2.1166833212 0.2227103952
C -6.0946291804 0.1874906669 -0.0236511236
C 3.5735416308 1.2918385800 -0.1089356079
C 4.9894887915 -0.6099608114 0.1655283122
C -3.5613257756 1.2814178187 0.1924982531
C -4.9738372741 -0.6272184724 -0.0507968150
C 2.4853870201 -0.9353123875 0.0017798903
C -2.4652011355 -0.9404076479 0.0504441910
C 1.1679416708 -3.0412958504 0.0343667627
C -1.1423220743 -3.0435161234 0.0111022488
C 8.4085679972 1.8669780253 0.1441237680
C 6.9316566300 3.8471863121 -0.1832879121
C -8.3989773557 1.8373082015 -0.0366820669
C -6.9251045003 3.8345556493 0.1991375203
C 2.4284531454 -2.2748095738 0.0469320269
C -2.4045737838 -2.2799144348 0.0092626810
C 1.2112809178 -4.4448608909 0.0373584829
C -1.1829216804 -4.4471973865 0.0094165457
C 0.0148563683 -5.1512946162 0.0232925186
H 4.5189493193 3.2071735638 -0.2070781594
H 7.0885181637 -0.2459385441 0.2970730026
H -4.5143826661 3.1911820170 0.3246186205
H -7.0775596257 -0.2745316024 -0.1227916999
H 2.5773472294 1.7300440055 -0.2285048836
H 5.1393061726 -1.6883405974 0.2705580546
H -2.5640392824 1.7257255035 0.2746961089
H -5.1198414503 -1.7045523300 -0.1708116681
H 1.5269210977 -0.4065277754 -0.0559008730
H -1.5079428462 -0.4076299411 0.0877014933
H 8.6471762628 1.2639418680 -0.7532252562
H 8.5379145320 1.2184757718 1.0270430236
H 9.1513467239 2.6718065141 0.2187460318
H 7.9078229658 4.3429707112 -0.1048680444
H 6.2546329601 4.3349591834 0.5388754376
H 6.5320891412 4.0371042658 -1.1979509853
H -8.6277720788 1.0506708992 0.7024821145
H -8.5152495308 1.3946436604 -1.0445778702
H -9.1565222389 2.6235467978 0.0765580362
H -7.9111352180 4.3126588290 0.2627192939
H -6.4164956824 4.2194687901 -0.7055612619
H -6.3415149903 4.1637350338 1.0759861077
H 3.3447097682 -2.8733840787 0.0925165147
H -3.3197500939 -2.8812699303 -0.0167665015
H 2.1742260192 -4.9616684455 0.0493182787
H -2.1448930068 -4.9658824826 0.0005292076
H 0.0158895634 -6.2450869427 0.0241979775
55
step=21 E=-1132.052668988673 Eh
N 7.0858097341 2.4405151162 0.0989232596
N -7.0889258066 2.4011278405 0.1782098100
N 0.0122493654 -2.3739862590 0.0218201748
C 5.9805741390 1.6149363447 0.0625370777
C -5.9755754471 1.5878968748 0.1280485048
C 3.6911480436 -0.0984135230 0.0214183222
C -3.6748287576 -0.1092696334 0.0627516775
C 4.6779670526 2.1334391868 -0.0960933162
C 6.1052573934 0.2116092960 0.1842202440
C -4.6706360790 2.1160277923 0.2232221854
C -6.0945383272 0.1868343488 -0.0231739118
C 3.5735396444 1.2912889108 -0.1084616071
C 4.9895228715 -0.6104616141 0.1660955811
C -3.5612435547 1.2807603788 0.1929952332
C -4.9737449275 -0.6278701884 -0.0503329999
C 2.4854341714 -0.9358885768 0.0022658669
C -2.4651069190 -0.9410571104 0.0508906414
C 1.1680378371 -3.0419035603 0.0347154548
C -1.1422253692 -3.0441506259 0.0114923841
C 8.4085407193 1.8665662264 0.1447796685
C 6.9315855113 3.8467451766 -0.1826803956
C -8.3989058287 1.8366388828 -0.0361040640
C -6.9250352905 3.8338909048 0.1997562958
C 2.4285334107 -2.2753909011 0.0473017653
C -2.4044854777 -2.2805633877 0.0097000022
C 1.2113972600 -4.4454679668 0.0376254094
C -1.1828048436 -4.4478322756 0.0097365288
C 0.0149818805 -5.1519165978 0.0235477292
H 4.5188929298 3.2066520234 -0.2066391213
H 7.0885362514 -0.2463774844 0.2976928090
H -4.5143003673 3.1905247844 0.3251476999
H -7.0774672481 -0.2751888728 -0.1223240941
H 2.5773382645 1.7294664539 -0.2280675342
H 5.1393656091 -1.6888324035 0.2711745357
H -2.5639595808 1.7250699872 0.2752020683
H -5.1197472889 -1.7052014645 -0.1703668447
H 1.5269524841 -0.4071253240 -0.0553410866
H -1.5078482036 -0.4082792291 0.0881280713
H 8.6472135568 1.2634498391 -0.7524964082
H 8.5378579732 1.2181510662 1.0277690777
H 9.1512937550 2.6714217369 0.2193593228
H 7.9077366562 4.3425512264 -0.1042131653
H 6.2545328748 4.3344550579 0.5394993880
H 6.5320337076 4.0367165669 -1.1973388515
H -8.6276679094 1.0500214065 0.7030927988
H -8.5152230317 1.3939457129 -1.0439809002
H -9.1564461299 2.6228801759 0.0771445259
H -7.9110710947 4.3119817443 0.2633466747
H -6.4164066167 4.2188791095 -0.7048983324
H -6.3414696803 4.1630077828 1.0766453473
H 3.3448048702 -2.8739482486 0.0927963756
H -3.3196605623 -2.8819213882 -0.0163141577
H 2.1743506829 -4.9622600628 0.0495326679
H -2.1447708078 -4.9665268311 0.0008434264
H 0.0160286103 -6.2457086071 0.0243930752
55
step=22 E=-1132.052669213649 Eh
N 7.0857413738 2.4401463777 0.0993571811
N -7.0888189219 2.4005925349 0.1786242430
N 0.0123193658 -2.3745252404 0.0221597365
C 5.9805306421 1.6145407061 0.0629755928
C -5.9754795490 1.5873537417 0.1284632213
C 3.6911509317 -0.0988661753 0.0218453648
C -3.6747491544 -0.1098310075 0.0631449587
C 4.6779147016 2.1330066298 -0.0956887436
C 6.1052496439 0.2112187805 0.1846972947
C -4.6705377857 2.1154726001 0.2236462662
C -6.0944558119 0.1862926516 -0.0227734510
C 3.5735063205 1.2908291377 -0.1080622109
C 4.9895369363 -0.6108792763 0.1665668654
C -3.5611513661 1.2801960552 0.1934068255
C -4.9736711729 -0.6284216725 -0.0499447486
C 2.4854623070 -0.9363758921 0.0026722223
C -2.4650339166 -0.9416280388 0.0512613347
C 1.1681196585 -3.0424219976 0.0350078470
C -1.1421433193 -3.0447086043 0.0118186375
C 8.4084843372 1.8662398734 0.1453243046
C 6.9314779229 3.8463860512 -0.1821666053
C -8.3988101187 1.8361070503 -0.0356183749
C -6.9249228495 3.8333516877 0.2002714127
C 2.4285998883 -2.2758832328 0.0476114410
C -2.4044103549 -2.2811341986 0.0100648028
C 1.2115038137 -4.4459858342 0.0378516781
C -1.1827002113 -4.4483905087 0.0100062871
C 0.0150997203 -5.1524539510 0.0237649651
H 4.5188151366 3.2062130180 -0.2062631172
H 7.0885377938 -0.2467377497 0.2982058823
H -4.5141928611 3.1899667424 0.3255842900
H -7.0773892846 -0.2757193208 -0.1219290410
H 2.5772965620 1.7289802189 -0.2276960724
H 5.1394024373 -1.6892435669 0.2716836401
H -2.5638632797 1.7244969506 0.2756188881
H -5.1196828265 -1.7057502944 -0.1699925759
H 1.5269637322 -0.4076364721 -0.0548721839
H -1.5077729728 -0.4088520382 0.0884807879
H 8.6472121140 1.2630605599 -0.7518930304
H 8.5377832413 1.2178956128 1.0283697641
H 9.1512115793 2.6711215930 0.2198686957
H 7.9076123991 4.3422180481 -0.1036613538
H 6.2543991521 4.3340361241 0.5400300883
H 6.5319346277 4.0364018497 -1.1968194723
H -8.6275500804 1.0495093404 0.7036073453
H -8.5151687450 1.3933884940 -1.0434780818
H -9.1563409083 2.6223559331 0.0776358827
H -7.9109571854 4.3114434944 0.2638694060
H -6.4162744870 4.2183956562 -0.7043472706
H -6.3413725060 4.1624114999 1.0771927552
H 3.3448877182 -2.8744212483 0.0930316421
H -3.3195821905 -2.8824965871 -0.0159357126
H 2.1744673633 -4.9627599844 0.0497164144
H -2.1446582700 -4.9670994416 0.0011089003
H 0.0161654008 -6.2462460036 0.0245619594
55
step=23 E=-1132.052669459731 Eh
N 7.0856968136 2.4397169282 0.0998481628
N -7.0887384353 2.3999656701 0.1790953136
N 0.0124087750 -2.3751154583 0.0225453144
C 5.9805079069 1.6140837327 0.0634717622
C -5.9753976636 1.5867295947 0.1289343678
C 3.6911771391 -0.0993848524 0.0223299159
C -3.6746635388 -0.1104454474 0.0635923566
C 4.6778828289 2.1325114437 -0.0952351422
C 6.1052620353 0.2107669898 0.1852416763
C -4.6704573347 2.1148495582 0.2241315948
C -6.0943715533 0.1856685341 -0.0223219883
C 3.5734980695 1.2903021279 -0.1076129204
C 4.9895727559 -0.6113603133 0.1671050247
C -3.5610681428 1.2795767323 0.1938780387
C -4.9735837594 -0.6290387070 -0.0495062830
C 2.4855136027 -0.9369288348 0.0031330966
C -2.4649473224 -0.9422378617 0.0516836363
C 1.1682168310 -3.0429998383 0.0353395219
C -1.1420478952 -3.0453103897 0.0121877451
C 8.4084542176 1.8658550938 0.1459458112
C 6.9313942758 3.8459687079 -0.1815907728
C -8.3987391677 1.8354725625 -0.0350699577
C -6.9248512636 3.8327243069 0.2008603125
C 2.4286848843 -2.2764410242 0.0479635932
C -2.4043207966 -2.2817438649 0.0104780166
C 1.2116164048 -4.4465629173 0.0381067712
C -1.1825896788 -4.4489928452 0.0103092878
C 0.0152192303 -5.1530424094 0.0240081270
H 4.5187558669 3.2057102661 -0.2058455725
H 7.0885599161 -0.2471577239 0.2987945482
H -4.5141148711 3.1893430159 0.3260867639
H -7.0773036884 -0.2763442477 -0.1214866444
H 2.5772803180 1.7284239630 -0.2272814238
H 5.1394617335 -1.6897163671 0.2722680650
H -2.5637823928 1.7238789213 0.2760987216
H -5.1195905990 -1.7063654869 -0.1695725023
H 1.5269993284 -0.4082111074 -0.0543425732
H -1.5076879852 -0.4094589267 0.0888851630
H 8.6472448678 1.2626005676 -0.7512028602
H 8.5377285486 1.2175938839 1.0290581095
H 9.1511540632 2.6707657571 0.2204490770
H 7.9075118839 4.3418270272 -0.1030419168
H 6.2542856885 4.3335555229 0.5406223201
H 6.5318634445 4.0360319720 -1.1962392194
H -8.6274476105 1.0488930240 0.7041867097
H -8.5151391499 1.3927269420 -1.0429121437
H -9.1562665124 2.6217236677 0.0781920080
H -7.9108897968 4.3108064919 0.2644665825
H -6.4161829967 4.2178388172 -0.7037165833
H -6.3413227627 4.1617231450 1.0778207536
H 3.3449864944 -2.8749636867 0.0933000127
H -3.3194909767 -2.8831100119 -0.0155088532
H 2.1745864086 -4.9633254000 0.0499230010
H -2.1445429107 -4.9677106881 0.0014057406
H 0.0162969988 -6.2468341775 0.0247487094
55
step=24 E=-1132.052669699768 Eh
N 7.0856243412 2.4393209991 0.1003165201
N -7.0886262350 2.3993866722 0.1795435578
N 0.0124867893 -2.3756994659 0.0229122486
C 5.9804620772 1.6136588538 0.0639448306
C -5.9752952124 1.5861436381 0.1293828131
C 3.6911841637 -0.0998793871 0.0227913292
C -3.6745770259 -0.1110535747 0.0640171125
C 4.6778264709 2.1320455358 -0.0947994295
C 6.1052552710 0.2103483581 0.1857570023
C -4.6703521182 2.1142515729 0.2245912803
C -6.0942812641 0.1850845639 -0.0218900381
C 3.5734675553 1.2898016938 -0.1071819098
C 4.9895919756 -0.6118133619 0.1676145208
C -3.5609719109 1.2789666755 0.1943237447
C -4.9735028386 -0.6296347621 -0.0490877996
C 2.4855471930 -0.9374603279 0.0035719827
C -2.4648664640 -0.9428538849 0.0520843629
C 1.1683060834 -3.0435639271 0.0356557409
C -1.1419586623 -3.0459113724 0.0125397322
C 8.4083958866 1.8655064720 0.1465343956
C 6.9312793061 3.8455828446 -0.1810373629
C -8.3986397050 1.8348985196 -0.0345459106
C -6.9247338579 3.8321412892 0.2014182264
C 2.4287580320 -2.2769781970 0.0482988166
C -2.4042400996 -2.2823597424 0.0108713343
C 1.2117299384 -4.4471265831 0.0383513969
C -1.1824770956 -4.4495939340 0.0105997649
C 0.0153436430 -5.1536251172 0.0242422528
H 4.5186694290 3.2052363417 -0.2054411900
H 7.0885645590 -0.2475419284 0.2993494678
H -4.5139993128 3.1887416581 0.3265610109
H -7.0772182900 -0.2769163895 -0.1210613679
H 2.5772394227 1.7278924432 -0.2268809842
H 5.1395085660 -1.6901618506 0.2728190202
H -2.5636818017 1.7232592807 0.2765508762
H -5.1195198621 -1.7069586277 -0.1691701004
H 1.5270148087 -0.4087674425 -0.0538371932
H -1.5076046158 -0.4100773574 0.0892676743
H 8.6472469959 1.2621836940 -0.7505506869
H 8.5376507857 1.2173224775 1.0297080090
H 9.1510669323 2.6704467060 0.2209991614
H 7.9073790706 4.3414691262 -0.1024476178
H 6.2541423652 4.3331052955 0.5411935263
H 6.5317578110 4.0356929050 -1.1956798844
H -8.6273251015 1.0483397521 0.7047413468
H -8.5150843400 1.3921264500 -1.0423702492
H -9.1561561459 2.6211587453 0.0787224500
H -7.9107713953 4.3102236810 0.2650323536
H -6.4160439309 4.2173167613 -0.7031193331
H -6.3412225864 4.1610779959 1.0784142669
H 3.3450767599 -2.8754809560 0.0935555873
H -3.3194073157 -2.8837304519 -0.0151017207
H 2.1747097050 -4.9638723315 0.0501220400
H -2.1444223976 -4.9683259269 0.0016908604
H 0.0164391890 -6.2474171072 0.0249302669
55
step=25 E=-1132.052669930915 Eh
N 7.0855605667 2.4389324349 0.1007723322
N -7.0885281075 2.3988167099 0.1799808925
N 0.0125682276 -2.3762615355 0.0232694826
C 5.9804236831 1.6132388526 0.0644053943
C -5.9752020702 1.5855686318 0.1298195844
C 3.6911978687 -0.1003642806 0.0232404654
C -3.6744917216 -0.1116340584 0.0644309168
C 4.6777764588 2.1315846768 -0.0943774004
C 6.1052560195 0.2099342956 0.1862610252
C -4.6702566907 2.1136695063 0.2250404915
C -6.0941953598 0.1845109169 -0.0214712434
C 3.5734417957 1.2893090027 -0.1067644824
C 4.9896161700 -0.6122582070 0.1681123915
C -3.5608788515 1.2783819385 0.1947595440
C -4.9734188948 -0.6302097365 -0.0486815640
C 2.4855874182 -0.9379807561 0.0039991119
C -2.4647846935 -0.9434367651 0.0524748699
C 1.1683961539 -3.0441112388 0.0359638711
C -1.1418696324 -3.0464860753 0.0128817178
C 8.4083479811 1.8651655569 0.1471096209
C 6.9311715453 3.8452047602 -0.1805018896
C -8.3985531706 1.8343285523 -0.0340365826
C -6.9246345456 3.8315696039 0.2019643755
C 2.4288346933 -2.2775030498 0.0486259421
C -2.4041565966 -2.2829421807 0.0112535696
C 1.2118377137 -4.4476731991 0.0385895221
C -1.1823714766 -4.4501694713 0.0108812147
C 0.0154594526 -5.1541852858 0.0244692396
H 4.5185905873 3.2047681961 -0.2050513908
H 7.0885761298 -0.2479230659 0.2998938783
H -4.5138998456 3.1881579308 0.3270259440
H -7.0771344789 -0.2774843476 -0.1206503710
H 2.5772042390 1.7273686259 -0.2264948632
H 5.1395581811 -1.6905988911 0.2733587959
H -2.5635875728 1.7226693702 0.2769941417
H -5.1194383025 -1.7075311536 -0.1687806876
H 1.5270388549 -0.4093117741 -0.0533467054
H -1.5075226725 -0.4106607984 0.0896416521
H 8.6472593479 1.2617750195 -0.7499125449
H 8.5375837777 1.2170585473 1.0303445521
H 9.1509897547 2.6701360861 0.2215361218
H 7.9072531399 4.3411204612 -0.1018724889
H 6.2540051570 4.3326645259 0.5417452363
H 6.5316594600 4.0353571822 -1.1951397628
H -8.6272135071 1.0477881611 0.7052796709
H -8.5150384954 1.3915316516 -1.0418445054
H -9.1560619543 2.6205950992 0.0792384956
H -7.9106728174 4.3096494693 0.2655861891
H -6.4159238050 4.2168068071 -0.7025345957
H -6.3411412347 4.1604460668 1.0789964383
H 3.3451684460 -2.8759883935 0.0938059175
H -3.3193221596 -2.8843161470 -0.0147068941
H 2.1748244475 -4.9644064320 0.0503160685
H -2.1443112311 -4.9689124238 0.0019664035
H 0.0165687247 -6.2479771906 0.0251056590
55
step=26 E=-1132.052670177006 Eh
N 7.0855023957 2.4385093449 0.1012641011
N -7.0884300230 2.3981986475 0.1804520213
N 0.0126522483 -2.3768643116 0.0236543805
C 5.9803906746 1.6127884021 0.0649018984
C -5.9751100315 1.5849482732 0.1302903872
C 3.6912160769 -0.1008820454 0.0237245328
C -3.6744072230 -0.1122643684 0.0648763307
C 4.6777331396 2.1310950135 -0.0939191191
C 6.1052600809 0.2094903422 0.1868006738
C -4.6701635622 2.1130427520 0.2255231132
C -6.0941097106 0.1838928037 -0.0210181479
C 3.5734239373 1.2887860336 -0.1063112758
C 4.9896455296 -0.6127358619 0.1686458960
C -3.5607899113 1.2777500960 0.1952273843
C -4.9733377695 -0.6308331893 -0.0482426833
C 2.4856307727 -0.9385337833 0.0044595404
C -2.4647021229 -0.9440697272 0.0528951089
C 1.1684915408 -3.0446949289 0.0362963514
C -1.1417756145 -3.0471049750 0.0132507517
C 8.4083035698 1.8647886116 0.1477258803
C 6.9310728283 3.8447931177 -0.1799200620
C -8.3984664272 1.8337108039 -0.0334861691
C -6.9245373005 3.8309482891 0.2025506805
C 2.4289151861 -2.2780621326 0.0489784435
C -2.4040708256 -2.2835752636 0.0116655936
C 1.2119555054 -4.4482563610 0.0388476528
C -1.1822553905 -4.4507881111 0.0111861050
C 0.0155869961 -5.1547853614 0.0247160043
H 4.5185187095 3.2042706815 -0.2046248844
H 7.0885909187 -0.2483337441 0.3004743490
H -4.5138019420 3.1875287476 0.3275242549
H -7.0770510545 -0.2780954025 -0.1202042775
H 2.5771762632 1.7268152731 -0.2260728798
H 5.1396138356 -1.6910690634 0.2739348720
H -2.5634964010 1.7220325323 0.2774688233
H -5.1193615894 -1.7081525111 -0.1683589089
H 1.5270646362 -0.4098876265 -0.0528170379
H -1.5074390787 -0.4112927752 0.0900433981
H 8.6472759068 1.2613266922 -0.7492304253
H 8.5375180689 1.2167615286 1.0310245698
H 9.1509173345 2.6697882998 0.2221118792
H 7.9071374651 4.3407350095 -0.1012484843
H 6.2538789014 4.3321871182 0.5423467188
H 6.5315700827 4.0349962258 -1.1945512597
H -8.6270996127 1.0471911480 0.7058619074
H -8.5149967474 1.3908860544 -1.0412754913
H -9.1559667573 2.6199841415 0.0797956676
H -7.9105767778 4.3090239347 0.2661806601
H -6.4158054482 4.2162517448 -0.7019070197
H -6.3410635493 4.1597621206 1.0796202861
H 3.3452651516 -2.8765293051 0.0940757153
H -3.3192328796 -2.8849547844 -0.0142807246
H 2.1749510690 -4.9649746881 0.0505272195
H -2.1441869970 -4.9695449323 0.0022653148
H 0.0167131412 -6.2485773144 0.0252977599
55
step=27 E=-1132.052670401801 Eh
N 7.0854322916 2.4381343678 0.1017083729
N -7.0883262729 2.3976470871 0.1808786139
N 0.0127318151 -2.3774168839 0.0240022175
C 5.9803473940 1.6123809304 0.0653506803
C -5.9750127507 1.5843900322 0.1307160925
C 3.6912261706 -0.1013567126 0.0241619115
C -3.6743219028 -0.1128347272 0.0652787727
C 4.6776774075 2.1306457628 -0.0935072951
C 6.1052572011 0.2090890765 0.1872910247
C -4.6700632982 2.1124758039 0.2259608175
C -6.0940213084 0.1833359038 -0.0206101002
C 3.5733935674 1.2883040273 -0.1059040909
C 4.9896664624 -0.6131691616 0.1691301208
C -3.5606958144 1.2771758824 0.1956514234
C -4.9732539780 -0.6313959203 -0.0478474401
C 2.4856675752 -0.9390440459 0.0048754163
C -2.4646211294 -0.9446432858 0.0532749704
C 1.1685794869 -3.0452326676 0.0365970371
C -1.1416883101 -3.0476699216 0.0135836261
C 8.4082496134 1.8644622528 0.1482854202
C 6.9309571994 3.8444278568 -0.1793976558
C -8.3983745170 1.8331608956 -0.0329896638
C -6.9244301100 3.8303945405 0.2030831793
C 2.4289892808 -2.2785766883 0.0492976866
C -2.4039894176 -2.2841483020 0.0120371825
C 1.2120612738 -4.4487934968 0.0390808399
C -1.1821511978 -4.4513540913 0.0114604436
C 0.0157010914 -5.1553368336 0.0249381175
H 4.5184333671 3.2038140730 -0.2042437055
H 7.0885993800 -0.2487015984 0.3010036638
H -4.5136949683 3.1869594999 0.3279774407
H -7.0769661971 -0.2786445211 -0.1198036764
H 2.5771358213 1.7263011465 -0.2256956784
H 5.1396612781 -1.6914946347 0.2744593154
H -2.5633999552 1.7214504882 0.2778999735
H -5.1192828821 -1.7087124439 -0.1679801696
H 1.5270851145 -0.4104224027 -0.0523399733
H -1.5073575669 -0.4118680491 0.0904075490
H 8.6472811428 1.2609352252 -0.7486100587
H 8.5374470371 1.2165099637 1.0316434301
H 9.1508335367 2.6694926160 0.2226340077
H 7.9070032855 4.3404000123 -0.1006880397
H 6.2537343136 4.3317593711 0.5428855049
H 6.5314625304 4.0346717464 -1.1940239090
H -8.6269844764 1.0466593650 0.7063867043
H -8.5149448772 1.3903120136 -1.0407631049
H -9.1558663456 2.6194414578 0.0802984212
H -7.9104695217 4.3084692497 0.2667204654
H -6.4156772715 4.2157571714 -0.7013368252
H -6.3409734907 4.1591487101 1.0801878453
H 3.3453546456 -2.8770257267 0.0943209407
H -3.3191501239 -2.8855309381 -0.0138971461
H 2.1750637529 -4.9654994976 0.0507181588
H -2.1440772720 -4.9701221740 0.0025336088
H 0.0168409389 -6.2491288418 0.0254700573
55
step=28 E=-1132.052670639870 Eh
N 7.0853713903 2.4377270549 0.1021849651
N -7.0882267083 2.3970497333 0.1813355047
N 0.0128126881 -2.3780044434 0.0243748051
C 5.9803115463 1.6119451693 0.0658316655
C -5.9749203142 1.5837880066 0.1311720885
C 3.6912420720 -0.1018595666 0.0246305021
C -3.6742383447 -0.1134470364 0.0657097299
C 4.6776306593 2.1301708249 -0.0930627794
C 6.1052589174 0.2086598065 0.1878130535
C -4.6699683950 2.1118651667 0.2264281283
C -6.0939380137 0.1827367370 -0.0201715513
C 3.5733724247 1.2877959983 -0.1054647102
C 4.9896932962 -0.6136320056 0.1696460005
C -3.5606040414 1.2765617609 0.1961044327
C -4.9731746114 -0.6319994866 -0.0474226695
C 2.4857085274 -0.9395818391 0.0053210818
C -2.4645406912 -0.9452601631 0.0536815122
C 1.1686718440 -3.0458009750 0.0369195627
C -1.1415973744 -3.0482735958 0.0139407077
C 8.4082032392 1.8641012800 0.1488815278
C 6.9308549901 3.8440319317 -0.1788335650
C -8.3982873238 1.8325664562 -0.0324562073
C -6.9243283681 3.8297940755 0.2036516565
C 2.4290666691 -2.2791202218 0.0496396692
C -2.4039060139 -2.2847652205 0.0124354644
C 1.2121760880 -4.4493612358 0.0393320540
C -1.1820385365 -4.4519574621 0.0117557934
C 0.0158254754 -5.1559211186 0.0251780411
H 4.5183581162 3.2033315695 -0.2038292091
H 7.0886119077 -0.2490979143 0.3015648743
H -4.5135950239 3.1863465713 0.3284602176
H -7.0768852701 -0.2792360521 -0.1193718289
H 2.5771042909 1.7257623145 -0.2252860235
H 5.1397145045 -1.6919501107 0.2750157890
H -2.5633054774 1.7208305892 0.2783595980
H -5.1192082813 -1.7093138504 -0.1675720728
H 1.5271088954 -0.4109829323 -0.0518278758
H -1.5072755639 -0.4124848796 0.0907966358
H 8.6472939514 1.2605059453 -0.7479507389
H 8.5373813213 1.2162261646 1.0323009922
H 9.1507590171 2.6691609510 0.2231907372
H 7.9068841967 4.3400306445 -0.1000837372
H 6.2536052990 4.3312987288 0.5434693240
H 6.5313683210 4.0343244016 -1.1934531054
H -8.6268725405 1.0460853907 0.7069508773
H -8.5149019176 1.3896910216 -1.0402117195
H -9.1557693444 2.6188552301 0.0808383586
H -7.9103680693 4.3078666977 0.2672968106
H -6.4155542241 4.2152197758 -0.7007284494
H -6.3408900048 4.1584863141 1.0807928227
H 3.3454480654 -2.8775510760 0.0945836767
H -3.3190632919 -2.8861529354 -0.0134854676
H 2.1751871238 -4.9660527824 0.0509246152
H -2.1439562451 -4.9707398285 0.0028228420
H 0.0169822597 -6.2497131293 0.0256574728
55
step=29 E=-1132.052670858820 Eh
N 7.0852963690 2.4373638902 0.1026192382
N -7.0881192339 2.3965131380 0.1817528741
N 0.0128912583 -2.3785493159 0.0247148560
C 5.9802645653 1.6115483478 0.0662703455
C -5.9748203239 1.5832437062 0.1315883718
C 3.6912504269 -0.1023269328 0.0250580904
C -3.6741524119 -0.1140071761 0.0661027844
C 4.6775703175 2.1297306417 -0.0926595407
C 6.1052540848 0.2082694715 0.1882916996
C -4.6698649945 2.1113111829 0.2268563589
C -6.0938479552 0.1821940225 -0.0197728700
C 3.5733386417 1.2873216695 -0.1050660154
C 4.9897134221 -0.6140561838 0.1701187148
C -3.5605088230 1.2759979806 0.1965189702
C -4.9730907610 -0.6325504901 -0.0470368098
C 2.4857441755 -0.9400859557 0.0057277198
C -2.4644595300 -0.9458242883 0.0540526208
C 1.1687583905 -3.0463315821 0.0372140552
C -1.1415116234 -3.0488299092 0.0142658601
C 8.4081450030 1.8637883813 0.1494273624
C 6.9307326865 3.8436778203 -0.1783225149
C -8.3981918679 1.8320332676 -0.0319709604
C -6.9242158601 3.8292549699 0.2041726630
C 2.4291398748 -2.2796286679 0.0499524626
C -2.4038258434 -2.2853290200 0.0127980653
C 1.2122793348 -4.4498911916 0.0395609496
C -1.1819368087 -4.4525146995 0.0120238663
C 0.0159365578 -5.1564646329 0.0253957403
H 4.5182668593 3.2028839546 -0.2034552718
H 7.0886190008 -0.2494537196 0.3020811413
H -4.5134834330 3.1857901726 0.3289039473
H -7.0767992304 -0.2797696165 -0.1189805154
H 2.5770596348 1.7252545858 -0.2249160952
H 5.1397628545 -1.6923665320 0.2755272825
H -2.5632073596 1.7202574921 0.2787812118
H -5.1191310620 -1.7098620338 -0.1672026419
H 1.5271278420 -0.4115121168 -0.0513618430
H -1.5071933482 -0.4130515755 0.0911529591
H 8.6472942165 1.2601303412 -0.7473458424
H 8.5373082484 1.2159863014 1.0329044192
H 9.1506700029 2.6688795108 0.2236997840
H 7.9067429273 4.3397078014 -0.0995361580
H 6.2534543755 4.3308821733 0.5439969693
H 6.5312527860 4.0340095978 -1.1929368466
H -8.6267555937 1.0455701162 0.7074635377
H -8.5148458433 1.3891345692 -1.0397110161
H -9.1556645634 2.6183300837 0.0813295140
H -7.9102549739 4.3073277579 0.2678246983
H -6.4154205150 4.2147379867 -0.7001704152
H -6.3407941107 4.1578881656 1.0813482781
H 3.3455364758 -2.8780415017 0.0948247291
H -3.3189822801 -2.8867192363 -0.0131115849
H 2.1752967454 -4.9665713877 0.0511127845
H -2.1438491371 -4.9713079198 0.0030846108
H 0.0171063031 -6.2502567170 0.0258266828
55
step=30 E=-1132.052671097328 Eh
N 7.0852355631 2.4369520253 0.1031005443
N -7.0880199085 2.3959086157 0.1822149325
N 0.0129735664 -2.3791417940 0.0250909162
C 5.9802291487 1.6111073641 0.0667559559
C -5.9747276499 1.5826347498 0.1320491448
C 3.6912668313 -0.1028343307 0.0255308365
C -3.6740684516 -0.1146255658 0.0665377403
C 4.6775239600 2.1292506834 -0.0922107618
C 6.1052564292 0.2078350523 0.1888186317
C -4.6697699839 2.1106940688 0.2273288316
C -6.0937639405 0.1815878298 -0.0193302763
C 3.5733178486 1.2868089055 -0.1046225804
C 4.9897404138 -0.6145236992 0.1706391629
C -3.5604168577 1.2753776610 0.1969767315
C -4.9730103096 -0.6331607247 -0.0466083449
C 2.4857855623 -0.9406277872 0.0061772229
C -2.4643784129 -0.9464464562 0.0544630032
C 1.1688523110 -3.0469046648 0.0375400194
C -1.1414191621 -3.0494386815 0.0146260585
C 8.4080987668 1.8634227457 0.1500290129
C 6.9306300652 3.8432775627 -0.1777531751
C -8.3981047025 1.8314306139 -0.0314323054
C -6.9241150256 3.8286475454 0.2047477273
C 2.4292183130 -2.2801760606 0.0502981523
C -2.4037410347 -2.2859510428 0.0131995844
C 1.2123960848 -4.4504637280 0.0398152880
C -1.1818221958 -4.4531233212 0.0123218156
C 0.0160630773 -5.1570540255 0.0256383213
H 4.5181923857 3.2023965427 -0.2030365359
H 7.0886320508 -0.2498554294 0.3026477622
H -4.5133838216 3.1851706776 0.3293925274
H -7.0767176224 -0.2803686049 -0.1185448920
H 2.5770285209 1.7247108241 -0.2245026251
H 5.1398158048 -1.6928267030 0.2760885279
H -2.5631127237 1.7196314124 0.2792458674
H -5.1190548006 -1.7104699841 -0.1667913737
H 1.5271521785 -0.4120768654 -0.0508460692
H -1.5071110718 -0.4136733658 0.0915463658
H 8.6473072249 1.2596956801 -0.7466804773
H 8.5372423736 1.2156985834 1.0335681207
H 9.1505956381 2.6685432113 0.2242614008
H 7.9066233161 4.3393343365 -0.0989267821
H 6.2533250067 4.3304167215 0.5445864476
H 6.5311577610 4.0336580447 -1.1923606291
H -8.6266430916 1.0449877135 0.7080330022
H -8.5148025029 1.3885052328 -1.0391545024
H -9.1555681501 2.6177351661 0.0818744931
H -7.9101547127 4.3067177083 0.2684074439
H -6.4152980255 4.2141945891 -0.6995548343
H -6.3407121873 4.1572182196 1.0819604825
H 3.3456313063 -2.8785701459 0.0950911768
H -3.3188938471 -2.8873466390 -0.0126970014
H 2.1754220415 -4.9671294438 0.0513224426
H -2.1437260049 -4.9719313009 0.0033759942
H 0.0172500013 -6.2508460931 0.0260163970
55
step=31 E=-1132.052671312341 Eh
N 7.0851555975 2.4365981477 0.1035279233
N -7.0879081837 2.3953828073 0.1826258490
N 0.0130508912 -2.3796828757 0.0254255449
C 5.9801780784 1.6107187393 0.0671875786
C -5.9746245496 1.5820998554 0.1324587948
C 3.6912733344 -0.1032971776 0.0259515684
C -3.6739811387 -0.1151789969 0.0669242737
C 4.6774586117 2.1288169738 -0.0918130549
C 6.1052491599 0.2074530186 0.1892885980
C -4.6696625601 2.1101474720 0.2277502525
C -6.0936727588 0.1810548630 -0.0189381323
C 3.5732804608 1.2863393093 -0.1042293635
C 4.9897595136 -0.6149416211 0.1711033698
C -3.5603182097 1.2748205760 0.1973846256
C -4.9729260176 -0.6337030288 -0.0462288862
C 2.4858200944 -0.9411286216 0.0065774285
C -2.4642968553 -0.9470054940 0.0548280084
C 1.1689374690 -3.0474315980 0.0378302880
C -1.1413348523 -3.0499907020 0.0149458626
C 8.4080365008 1.8631211309 0.1505647710
C 6.9305010103 3.8429323380 -0.1772495584
C -8.3980057838 1.8309107572 -0.0309548527
C -6.9239959293 3.8281188723 0.2052605310
C 2.4292903675 -2.2806812293 0.0506065089
C -2.4036618505 -2.2865098859 0.0135558990
C 1.2124975129 -4.4509899800 0.0400414223
C -1.1817225328 -4.4536761636 0.0125856536
C 0.0161719766 -5.1575933084 0.0258531919
H 4.5180945503 3.2019552755 -0.2026667771
H 7.0886373766 -0.2502017364 0.3031540538
H -4.5132670721 3.1846214762 0.3298293899
H -7.0766309409 -0.2808913067 -0.1181600068
H 2.5769794434 1.7242064246 -0.2241369477
H 5.1398649615 -1.6932367785 0.2765901230
H -2.5630106025 1.7190638552 0.2796607694
H -5.1189784256 -1.7110093711 -0.1664282043
H 1.5271697405 -0.4126033001 -0.0503876759
H -1.5070277262 -0.4142361378 0.0918972504
H 8.6473030894 1.2593335252 -0.7460872043
H 8.5371675343 1.2154685442 1.0341600047
H 9.1505014474 2.6682740755 0.2247608562
H 7.9064748727 4.3390213833 -0.0983878713
H 6.2531676423 4.3300086525 0.5451071512
H 6.5310341715 4.0333511991 -1.1918514421
H -8.6265246835 1.0444858860 0.7085373066
H -8.5147429990 1.3879627949 -1.0386618788
H -9.1554585110 2.6172247277 0.0823576004
H -7.9100342513 4.3061908196 0.2689268005
H -6.4151572778 4.2137213629 -0.6990055213
H -6.3406090517 4.1566305232 1.0825072357
H 3.3457184429 -2.8790573466 0.0953294665
H -3.3188142630 -2.8879072834 -0.0123299178
H 2.1755295518 -4.9676449205 0.0515090156
H -2.1436210015 -4.9724948961 0.0036333310
H 0.0173715234 -6.2513854717 0.0261838006
55
step=32 E=-1132.052671553224 Eh
N 7.0850957160 2.4361770734 0.1040185176
N -7.0878091909 2.3947649125 0.1830976157
N 0.0131353001 -2.3802850763 0.0258086040
C 5.9801437708 1.6102682389 0.0676824214
C -5.9745318935 1.5814777925 0.1329287885
C 3.6912906812 -0.1038130947 0.0264329245
C -3.6738970348 -0.1158097839 0.0673672449
C 4.6774134765 2.1283277903 -0.0913558557
C 6.1052526519 0.2070091816 0.1898255422
C -4.6695680871 2.1095184924 0.2282325037
C -6.0935878089 0.1804355071 -0.0184872893
C 3.5732605467 1.2858179045 -0.1037778145
C 4.9897871407 -0.6154178709 0.1716334226
C -3.5602272782 1.2741878018 0.1978514275
C -4.9728447708 -0.6343265904 -0.0457928157
C 2.4858623802 -0.9416787040 0.0070350100
C -2.4642149480 -0.9476388668 0.0552459985
C 1.1690338750 -3.0480138271 0.0381628772
C -1.1412399906 -3.0506098865 0.0153125153
C 8.4079909314 1.8627457315 0.1511777729
C 6.9303993027 3.8425232378 -0.1766696239
C -8.3979185163 1.8302933097 -0.0304057733
C -6.9238964069 3.8274982868 0.2058478993
C 2.4293707213 -2.2812368806 0.0509593103
C -2.4035751726 -2.2871430206 0.0139643074
C 1.2126173834 -4.4515716142 0.0403014967
C -1.1816045226 -4.4542952794 0.0128890273
C 0.0163021840 -5.1581926655 0.0261008756
H 4.5180218934 3.2014587152 -0.2022400116
H 7.0886513773 -0.2506131283 0.3037316476
H -4.5131683686 3.1839902042 0.3303286347
H -7.0765482460 -0.2815036777 -0.1177164449
H 2.5769493545 1.7236540516 -0.2237159949
H 5.1399179600 -1.6937056726 0.2771616423
H -2.5629171577 1.7184253188 0.2801348173
H -5.1189008989 -1.7116306133 -0.1660100992
H 1.5271948572 -0.4131765734 -0.0498634851
H -1.5069451873 -0.4148684252 0.0922986301
H 8.6473170214 1.2588875076 -0.7454093149
H 8.5371013781 1.2151724947 1.0348362757
H 9.1504280645 2.6679278063 0.2253327887
H 7.9063562158 4.3386389734 -0.0977676788
H 6.2530392615 4.3295337466 0.5457077642
H 6.5309398983 4.0329916212 -1.1912644211
H -8.6264109760 1.0438886089 0.7091174921
H -8.5146993595 1.3873183010 -1.0380947949
H -9.1553627377 2.6166143171 0.0829129219
H -7.9099357067 4.3055668412 0.2695217641
H -6.4150356165 4.2131665966 -0.6983766216
H -6.3405293291 4.1559463641 1.0831327975
H 3.3458156403 -2.8795935688 0.0956024046
H -3.3187235647 -2.8885464876 -0.0119086853
H 2.1756581481 -4.9682116426 0.0517241793
H -2.1434940974 -4.9731294728 0.0039295984
H 0.0175195615 -6.2519847754 0.0263778366
55
step=33 E=-1132.052671760683 Eh
N 7.0850127648 2.4358377969 0.1044320528
N -7.0876960547 2.3942577995 0.1834953816
N 0.0132104022 -2.3808130299 0.0261324954
C 5.9800901600 1.6098936164 0.0681000223
C -5.9744278706 1.5809609715 0.1333252469
C 3.6912957119 -0.1042639881 0.0268400457
C -3.6738096447 -0.1163467247 0.0677412350
C 4.6773450402 2.1279072861 -0.0909701620
C 6.1052437238 0.2066411277 0.1902793480
C -4.6694590184 2.1089883109 0.2286404662
C -6.0934970438 0.1799208366 -0.0181079980
C 3.5732208779 1.2853604964 -0.1033964530
C 4.9898053721 -0.6158229930 0.1720817268
C -3.5601269210 1.2736472494 0.1982463542
C -4.9727611016 -0.6348509802 -0.0454257753
C 2.4858956679 -0.9421680749 0.0074223660
C -2.4641341015 -0.9481827583 0.0555992365
C 1.1691163564 -3.0485283329 0.0384441709
C -1.1411583544 -3.0511478282 0.0156218891
C 8.4079262868 1.8624598288 0.1516948746
C 6.9302661687 3.8421920643 -0.1761817324
C -8.3978186377 1.8297941842 -0.0299439790
C -6.9237743428 3.8269880662 0.2063441995
C 2.4294406351 -2.2817304658 0.0512581845
C -2.4034979845 -2.2876867995 0.0143087626
C 1.2127152438 -4.4520854714 0.0405209847
C -1.1815086913 -4.4548339396 0.0131443115
C 0.0164068246 -5.1587184652 0.0263092195
H 4.5179200432 3.2010306781 -0.2018805472
H 7.0886554470 -0.2509449349 0.3042199468
H -4.5130493556 3.1834572315 0.3307517511
H -7.0764622793 -0.2820075302 -0.1173442899
H 2.5768974753 1.7231611697 -0.2233605574
H 5.1399674008 -1.6941030145 0.2776454046
H -2.5628129236 1.7178737221 0.2805366642
H -5.1188259135 -1.7121520212 -0.1656589758
H 1.5272112801 -0.4136915441 -0.0494200321
H -1.5068619169 -0.4154170507 0.0926386595
H 8.6473092328 1.2585441004 -0.7448370844
H 8.5370265702 1.2149556424 1.0354071926
H 9.1503308715 2.6676748566 0.2258146262
H 7.9062035284 4.3383406461 -0.0972462963
H 6.2528785186 4.3291403478 0.5462128943
H 6.5308108681 4.0326971881 -1.1907707216
H -8.6262937316 1.0434072312 0.7096051162
H -8.5146381241 1.3867976331 -1.0376183937
H -9.1552511829 2.6161255828 0.0833800312
H -7.9098117374 4.3050595387 0.2700241215
H -6.4148919159 4.2127093006 -0.6978448605
H -6.3404225443 4.1553783304 1.0836620315
H 3.3459001910 -2.8800696733 0.0958338976
H -3.3186464466 -2.8890912433 -0.0115541744
H 2.1757616339 -4.9687156260 0.0519057688
H -2.1433932089 -4.9736783314 0.0041782958
H 0.0176359933 -6.2525106818 0.0265403704
55
step=34 E=-1132.052672002771 Eh
N 7.0849536943 2.4354101527 0.1049291336
N -7.0875970898 2.3936304163 0.1839741704
N 0.0132959319 -2.3814220438 0.0265203743
C 5.9800564454 1.6094367622 0.0686012248
C -5.9743353351 1.5803292451 0.1338017839
C 3.6913132922 -0.1047852783 0.0273272525
C -3.6737258388 -0.1169869487 0.0681897407
C 4.6773006714 2.1274121610 -0.0905072180
C 6.1052474348 0.2061909312 0.1908232051
C -4.6693650075 2.1083504902 0.2291297298
C -6.0934117904 0.1792917852 -0.0176514483
C 3.5732013983 1.2848336581 -0.1029393979
C 4.9898328440 -0.6163050819 0.1726183701
C -3.5600370373 1.2730049225 0.1987195517
C -4.9726797573 -0.6354845175 -0.0449845233
C 2.4859380459 -0.9427231610 0.0078854033
C -2.4640521071 -0.9488247939 0.0560224768
C 1.1692144073 -3.0491165025 0.0387814576
C -1.1410619056 -3.0517747796 0.0159929148
C 8.4078812140 1.8620771600 0.1523157780
C 6.9301657598 3.8417766560 -0.1755945394
C -8.3977310663 1.8291663150 -0.0293875731
C -6.9236751873 3.8263581077 0.2069405035
C 2.4295220303 -2.2822911247 0.0516160507
C -2.4034103028 -2.2883285162 0.0147217613
C 1.2128376580 -4.4526729676 0.0407852428
C -1.1813879218 -4.4554609081 0.0134513665
C 0.0165402847 -5.1593248277 0.0265605356
H 4.5178487224 3.2005282301 -0.2014482880
H 7.0886694627 -0.2513630436 0.3048051951
H -4.5129512245 3.1828171831 0.3312587724
H -7.0763792448 -0.2826295844 -0.1168952780
H 2.5768679839 1.7226035220 -0.2229345771
H 5.1400196719 -1.6945777441 0.2782239723
H -2.5627206242 1.7172254411 0.2810174053
H -5.1187480942 -1.7127832119 -0.1652363383
H 1.5272364074 -0.4142700421 -0.0488904167
H -1.5067797112 -0.4160575014 0.0930457190
H 8.6473236720 1.2580896229 -0.7441504668
H 8.5369601151 1.2146533157 1.0360922381
H 9.1502584134 2.6673209987 0.2263936850
H 7.9060863943 4.3379514966 -0.0966188090
H 6.2527517207 4.3286590333 0.5468211309
H 6.5307177836 4.0323319052 -1.1901762833
H -8.6261790717 1.0427994448 0.7101927667
H -8.5145939237 1.3861425135 -1.0370439146
H -9.1551556027 2.6155042879 0.0839425497
H -7.9097137270 4.3044259051 0.2706278944
H -6.4147700984 4.2121463467 -0.6972062468
H -6.3403438040 4.1546838728 1.0842973476
H 3.3459988624 -2.8806102094 0.0961117084
H -3.3185543629 -2.8897397060 -0.0111286593
H 2.1758930876 -4.9692875294 0.0521251064
H -2.1432631014 -4.9743216206 0.0044777566
H 0.0177881982 -6.2531169719 0.0267375402
55
step=35 E=-1132.052672205072 Eh
N 7.0848673134 2.4350812301 0.1053335077
N -7.0874817935 2.3931359825 0.1843633522
N 0.0133697562 -2.3819423803 0.0268372589
C 5.9800001872 1.6090714952 0.0690095892
C -5.9742296212 1.5798245131 0.1341896300
C 3.6913169812 -0.1052288971 0.0277254217
C -3.6736377311 -0.1175134912 0.0685555315
C 4.6772290314 2.1270000072 -0.0901292835
C 6.1052371295 0.2058322893 0.1912662494
C -4.6692536552 2.1078309328 0.2295290491
C -6.0933205265 0.1787894267 -0.0172806881
C 3.5731592814 1.2843836421 -0.1025657005
C 4.9898504112 -0.6167018276 0.1730560671
C -3.5599345269 1.2724748136 0.1991061568
C -4.9725960129 -0.6359972026 -0.0446257349
C 2.4859704525 -0.9432060512 0.0082643377
C -2.4639712482 -0.9493595291 0.0563680583
C 1.1692952479 -3.0496239446 0.0390569640
C -1.1409818796 -3.0523043499 0.0162953994
C 8.4078137388 1.8618028145 0.1528203029
C 6.9300277487 3.8414554126 -0.1751170100
C -8.3976294903 1.8286817060 -0.0289362263
C -6.9235496098 3.8258603490 0.2074260932
C 2.4295906393 -2.2827781584 0.0519088416
C -2.4033342037 -2.2888632157 0.0150583323
C 1.2129332291 -4.4531798042 0.0410004825
C -1.1812945325 -4.4559910895 0.0137009492
C 0.0166420996 -5.1598427606 0.0267646031
H 4.5177427005 3.2001085256 -0.2010953160
H 7.0886725879 -0.2516847444 0.3052814293
H -4.5128292518 3.1822946576 0.3316731895
H -7.0762930568 -0.2831204655 -0.1165316755
H 2.5768131471 1.7221172626 -0.2225856270
H 5.1400695841 -1.6949667217 0.2786957359
H -2.5626138256 1.7166836684 0.2814109892
H -5.1186738382 -1.7132928269 -0.1648933379
H 1.5272518752 -0.4147787840 -0.0484568604
H -1.5066958421 -0.4165978323 0.0933788808
H 8.6473122852 1.2577599127 -0.7435924486
H 8.5368844393 1.2144463606 1.0366489900
H 9.1501576963 2.6670801733 0.2268635445
H 7.9059284913 4.3376639535 -0.0961091827
H 6.2525864808 4.3282756515 0.5473161390
H 6.5305826724 4.0320461393 -1.1896927048
H -8.6260619066 1.0423324311 0.7106691621
H -8.5145305099 1.3856371758 -1.0365783697
H -9.1550414537 2.6150309675 0.0843989436
H -7.9095857852 4.3039320304 0.2711191007
H -6.4146226873 4.2116997741 -0.6966857952
H -6.3402331059 4.1541289321 1.0848152851
H 3.3460818612 -2.8810800086 0.0963389973
H -3.3184786983 -2.8902746961 -0.0107826573
H 2.1759939484 -4.9697851726 0.0523036182
H -2.1431648592 -4.9748615413 0.0047205847
H 0.0179011324 -6.2536350201 0.0268968645
55
step=36 E=-1132.052672447578 Eh
N 7.0848087209 2.4346486384 0.1058356638
N -7.0873830332 2.3925008490 0.1848476783
N 0.0134564941 -2.3825570017 0.0272288863
C 5.9799668978 1.6086097357 0.0695157199
C -5.9741371339 1.5791852207 0.1346713117
C 3.6913351493 -0.1057552024 0.0282171449
C -3.6735536117 -0.1181605674 0.0690083668
C 4.6771850390 2.1264998889 -0.0896616218
C 6.1052412449 0.2053771894 0.1918151742
C -4.6691599228 2.1071861719 0.2300237735
C -6.0932348043 0.1781527468 -0.0168196438
C 3.5731402433 1.2838517453 -0.1021041240
C 4.9898783669 -0.6171889191 0.1735975449
C -3.5598449970 1.2718255052 0.1995843531
C -4.9725139918 -0.6366381319 -0.0441803840
C 2.4860134884 -0.9437661573 0.0087316079
C -2.4638886248 -0.9500077242 0.0567954058
C 1.1693947024 -3.0502174021 0.0393979755
C -1.1408841203 -3.0529372220 0.0166698139
C 8.4077691495 1.8614153101 0.1534470126
C 6.9299277820 3.8410352023 -0.1745239420
C -8.3975418301 1.8280452889 -0.0283740645
C -6.9234511469 3.8252227137 0.2080293344
C 2.4296732222 -2.2833438126 0.0522707307
C -2.4032454170 -2.2895110241 0.0154748561
C 1.2130572926 -4.4537725180 0.0412681376
C -1.1811720975 -4.4566240584 0.0140108896
C 0.0167774722 -5.1604547413 0.0270188565
H 4.5176717809 3.1996011053 -0.2006582937
H 7.0886869702 -0.2521077290 0.3058721175
H -4.5127317166 3.1816477110 0.3321862666
H -7.0762094551 -0.2837504274 -0.1160783468
H 2.5767840795 1.7215544020 -0.2221552865
H 5.1401223135 -1.6954464251 0.2792792719
H -2.5625220629 1.7160285094 0.2818969423
H -5.1185949333 -1.7139314103 -0.1644670913
H 1.5272775860 -0.4153625184 -0.0479230773
H -1.5066133271 -0.4172441311 0.0937904444
H 8.6473273305 1.2572999688 -0.7428995309
H 8.5368183462 1.2141398789 1.0373403537
H 9.1500856769 2.6667215708 0.2274478056
H 7.9058118654 4.3372698880 -0.0954759495
H 6.2524603894 4.3277892138 0.5479307286
H 6.5304896772 4.0316765396 -1.1890921549
H -8.6259466466 1.0417160249 0.7112626909
H -8.5144859777 1.3849733142 -1.0359980840
H -9.1549462208 2.6144007267 0.0849670735
H -7.9094886683 4.3032903487 0.2717296488
H -6.4145011896 4.2111300744 -0.6960396416
H -6.3401556206 4.1534262260 1.0854581580
H 3.3461818951 -2.8816252154 0.0966207884
H -3.3183853854 -2.8909295422 -0.0103539146
H 2.1761271052 -4.9703620959 0.0525264303
H -2.1430329389 -4.9755112062 0.0050225076
H 0.0180556055 -6.2542469128 0.0270966270
55
step=37 E=-1132.052672628907 Eh
N 7.0847290453 2.4343534759 0.1061996764
N -7.0872774751 2.3920559744 0.1851983197
N 0.0135229896 -2.3830269634 0.0275141664
C 5.9799148033 1.6082812874 0.0698832898
C -5.9740405457 1.5787306459 0.1350206163
C 3.6913377511 -0.1061550977 0.0285754579
C -3.6734735806 -0.1186357869 0.0693376146
C 4.6771188750 2.1261288082 -0.0893209301
C 6.1052311902 0.2050547361 0.1922134313
C -4.6690580020 2.1067175625 0.2303835529
C -6.0931518778 0.1777004396 -0.0164859717
C 3.5731010322 1.2834461254 -0.1017673063
C 4.9898937174 -0.6175461205 0.1739909440
C -3.5597512955 1.2713470682 0.1999326106
C -4.9724381903 -0.6371002144 -0.0438575675
C 2.4860422238 -0.9442018218 0.0090726399
C -2.4638154503 -0.9504908953 0.0571065070
C 1.1694675921 -3.0506755246 0.0396462999
C -1.1408118934 -3.0534155993 0.0169419960
C 8.4077066864 1.8611697015 0.1539003573
C 6.9298009008 3.8407469353 -0.1740937706
C -8.3974489001 1.8276100707 -0.0279678390
C -6.9233356335 3.8247747321 0.2084668212
C 2.4297348979 -2.2837832109 0.0525346594
C -2.4031767704 -2.2899941711 0.0157775157
C 1.2131437383 -4.4542301104 0.0414624523
C -1.1810876196 -4.4571029465 0.0142355255
C 0.0168696022 -5.1609224736 0.0272029068
H 4.5175742576 3.1992232106 -0.2003395501
H 7.0886892116 -0.2523965817 0.3062999021
H -4.5126198188 3.1811763201 0.3325598766
H -7.0761312787 -0.2841919520 -0.1157512134
H 2.5767331818 1.7211157486 -0.2218403395
H 5.1401672357 -1.6957966271 0.2797028730
H -2.5624242622 1.7155391291 0.2822516092
H -5.1185281461 -1.7143906525 -0.1641586687
H 1.5272909053 -0.4158217762 -0.0475331801
H -1.5065372237 -0.4177326608 0.0940907603
H 8.6473151205 1.2570049230 -0.7423983460
H 8.5367491327 1.2139546932 1.0378404233
H 9.1499930594 2.6665063474 0.2278698214
H 7.9056669206 4.3370123302 -0.0950173945
H 6.2523092397 4.3274446374 0.5483770969
H 6.5303647221 4.0314201903 -1.1886562638
H -8.6258403421 1.0412967110 0.7116913131
H -8.5144274075 1.3845196111 -1.0355791425
H -9.1548415227 2.6139761214 0.0853776917
H -7.9093708050 4.3028463366 0.2721719650
H -6.4143656299 4.2107279213 -0.6955706337
H -6.3400535553 4.1529264673 1.0859248861
H 3.3462566855 -2.8820488262 0.0968261683
H -3.3183171234 -2.8914128944 -0.0100430758
H 2.1762183820 -4.9708113339 0.0526880146
H -2.1429439661 -4.9759990370 0.0052408249
H 0.0181578787 -6.2547147593 0.0272405175
55
step=38 E=-1132.052672862635 Eh
N 7.0846674320 2.4339375308 0.1066854804
N -7.0871776700 2.3914424694 0.1856674601
N 0.0136075312 -2.3836254990 0.0278935332
C 5.9798789213 1.6078353435 0.0703730110
C -5.9739472516 1.5781124405 0.1354871822
C 3.6913545719 -0.1066675766 0.0290514904
C -3.6733895110 -0.1192631419 0.0697762969
C 4.6770716784 2.1256433686 -0.0888683043
C 6.1052337593 0.2046154035 0.1927446112
C -4.6689630297 2.1060928227 0.2308635911
C -6.0930660950 0.1770849144 -0.0160402054
C 3.5730795403 1.2829279985 -0.1013204092
C 4.9899207997 -0.6180184735 0.1745149827
C -3.5596608874 1.2707173315 0.2003966740
C -4.9723564495 -0.6377205493 -0.0434269246
C 2.4860843054 -0.9447486330 0.0095250844
C -2.4637334908 -0.9511201443 0.0575206888
C 1.1695641447 -3.0512542201 0.0399767942
C -1.1407171373 -3.0540311589 0.0173042513
C 8.4076599216 1.8608002973 0.1545063975
C 6.9296965280 3.8403425459 -0.1735204867
C -8.3973603145 1.8269967741 -0.0274244933
C -6.9232349202 3.8241586351 0.2090516822
C 2.4298154071 -2.2843353847 0.0528855898
C -2.4030900750 -2.2906230732 0.0161803980
C 1.2132632843 -4.4548080769 0.0417217405
C -1.1809698301 -4.4577185837 0.0145349513
C 0.0169996279 -5.1615182998 0.0274486759
H 4.5174991189 3.1987303590 -0.1999164933
H 7.0887025486 -0.2528031952 0.3068715201
H -4.5125204479 3.1805492470 0.3330583997
H -7.0760478648 -0.2848002804 -0.1153135658
H 2.5767012045 1.7205658768 -0.2214235823
H 5.1402202058 -1.6962615147 0.2802675664
H -2.5623314156 1.7149029379 0.2827238393
H -5.1184501027 -1.7150085210 -0.1637471619
H 1.5273158829 -0.4163922420 -0.0470168940
H -1.5064549848 -0.4183609266 0.0944905574
H 8.6473271304 1.2565657813 -0.7417281929
H 8.5366832160 1.2136641717 1.0385091555
H 9.1499179930 2.6661665902 0.2284343593
H 7.9055455532 4.3366350516 -0.0944058748
H 6.2521790131 4.3269751450 0.5489713160
H 6.5302662908 4.0310635831 -1.1880756205
H -8.6257263262 1.0407026687 0.7122645270
H -8.5143803479 1.3838803373 -1.0350185464
H -9.1547448590 2.6133695684 0.0859266393
H -7.9092710469 4.3022271129 0.2727634087
H -6.4142416975 4.2101774482 -0.6949437469
H -6.3399734595 4.1522465309 1.0865486166
H 3.3463540164 -2.8825812798 0.0970999863
H -3.3182265833 -2.8920478016 -0.0096291078
H 2.1763463719 -4.9713746460 0.0529040990
H -2.1428172469 -4.9766303842 0.0055319569
H 0.0183057980 -6.2553104618 0.0274332589
55
step=39 E=-1132.052673035987 Eh
N 7.0845854025 2.4336579598 0.1070334253
N -7.0870709415 2.3910194744 0.1860030107
N 0.0136711310 -2.3840786716 0.0281662961
C 5.9798245098 1.6075224435 0.0707243766
C -5.9738505236 1.5776783630 0.1358212903
C 3.6913543582 -0.1070510679 0.0293939432
C -3.6733111182 -0.1197202538 0.0700910307
C 4.6770032760 2.1252884052 -0.0885424136
C 6.1052213197 0.2043084758 0.1931251057
C -4.6688605663 2.1056436342 0.2312079183
C -6.0929844922 0.1766532586 -0.0157213196
C 3.5730376763 1.2825389959 -0.1009982778
C 4.9899334896 -0.6183597056 0.1748907721
C -3.5595675535 1.2702570482 0.2007298773
C -4.9722829112 -0.6381632547 -0.0431185106
C 2.4861099420 -0.9451676704 0.0098510311
C -2.4636626578 -0.9515864534 0.0578181156
C 1.1696340309 -3.0516955490 0.0402144537
C -1.1406477366 -3.0544927212 0.0175643116
C 8.4075948399 1.8605693817 0.1549392847
C 6.9295676347 3.8400693916 -0.1731092952
C -8.3972663187 1.8265848312 -0.0270362289
C -6.9231164789 3.8237324208 0.2094704080
C 2.4298740461 -2.2847580410 0.0531382596
C -2.4030241943 -2.2910894097 0.0164694120
C 1.2133467130 -4.4552488620 0.0419078842
C -1.1808881973 -4.4581806172 0.0147495330
C 0.0170887881 -5.1619693270 0.0276247587
H 4.5173996819 3.1983688189 -0.1996113266
H 7.0887022759 -0.2530768822 0.3072801191
H -4.5124069475 3.1800972076 0.3334162188
H -7.0759714171 -0.2852201196 -0.1150010433
H 2.5766476510 1.7201442392 -0.2211221938
H 5.1402622765 -1.6965959891 0.2806720119
H -2.5622334933 1.7144307294 0.2830633182
H -5.1183867189 -1.7154483304 -0.1634527236
H 1.5273261214 -0.4168348914 -0.0466446059
H -1.5063808254 -0.4188331986 0.0947780666
H 8.6473103824 1.2562879432 -0.7412496594
H 8.5366125568 1.2134911015 1.0389865700
H 9.1498233226 2.6659654008 0.2288371081
H 7.9053988431 4.3363923866 -0.0939679848
H 6.2520266608 4.3266474422 0.5493982463
H 6.5301385864 4.0308204556 -1.1876588077
H -8.6256208294 1.0403061909 0.7126740325
H -8.5143195032 1.3834509798 -1.0346181711
H -9.1546385576 2.6129687849 0.0863189195
H -7.9091496295 4.3018062154 0.2731865394
H -6.4141032709 4.2097943504 -0.6944947262
H -6.3398675889 4.1517698744 1.0869954596
H 3.3464256994 -2.8829879847 0.0972970680
H -3.3181611460 -2.8925141668 -0.0093326090
H 2.1764346054 -4.9718070782 0.0530592120
H -2.1427310941 -4.9771013290 0.0057402338
H 0.0184050685 -6.2557616268 0.0275709675
55
step=40 E=-1132.052673272133 Eh
N 7.0845244684 2.4332336783 0.1075280595
N -7.0869718521 2.3903923669 0.1864811478
N 0.0137579094 -2.3846876040 0.0285529708
C 5.9797895929 1.6070677392 0.0712230237
C -5.9737570496 1.5770477541 0.1362968386
C 3.6913730477 -0.1075738443 0.0298788002
C -3.6732254598 -0.1203582710 0.0705382275
C 4.6769566528 2.1247933726 -0.0880808220
C 6.1052254439 0.2038603579 0.1936653579
C -4.6687656577 2.1050070713 0.2316977809
C -6.0928973873 0.1760252937 -0.0152675293
C 3.5730174449 1.2820104020 -0.1005424341
C 4.9899625979 -0.6188415867 0.1754238080
C -3.5594764032 1.2696165742 0.2012035156
C -4.9721991244 -0.6387950654 -0.0426800572
C 2.4861543356 -0.9457251670 0.0103119743
C -2.4635786408 -0.9522255573 0.0582405047
C 1.1697328279 -3.0522847932 0.0405514819
C -1.1405509775 -3.0551183146 0.0179332792
C 8.4075491479 1.8601927052 0.1555553356
C 6.9294629693 3.8396568828 -0.1725252860
C -8.3971782373 1.8259572512 -0.0264833933
C -6.9230177300 3.8231027495 0.2100667405
C 2.4299569464 -2.2853208501 0.0534961916
C -2.4029353649 -2.2917280997 0.0168796404
C 1.2134683010 -4.4558374077 0.0421723583
C -1.1807686919 -4.4588062665 0.0150542811
C 0.0172205388 -5.1625751940 0.0278751099
H 4.5173243967 3.1978662844 -0.1991792549
H 7.0887174407 -0.2534917658 0.3078610765
H -4.5123084817 3.1794583016 0.3339254237
H -7.0758863335 -0.2858416461 -0.1145559813
H 2.5766167282 1.7195832348 -0.2206964781
H 5.1403178701 -1.6970702782 0.2812458994
H -2.5621402598 1.7137844771 0.2835457443
H -5.1183057228 -1.7160776757 -0.1630342021
H 1.5273533966 -0.4174162821 -0.0461188938
H -1.5062967445 -0.4194710482 0.0951865195
H 8.6473240670 1.2558405910 -0.7405686882
H 8.5365480372 1.2131944978 1.0396661735
H 9.1497487188 2.6656190220 0.2294106492
H 7.9052769409 4.3360074400 -0.0933457501
H 6.2518962457 4.3261685593 0.5500041592
H 6.5300391705 4.0304566914 -1.1870669751
H -8.6255068151 1.0396978613 0.7132569378
H -8.5142728998 1.3827971664 -1.0340479817
H -9.1545427656 2.6123476189 0.0868772417
H -7.9090523128 4.3011724590 0.2737890967
H -6.4139807064 4.2092320852 -0.6938552339
H -6.3397906329 4.1510755288 1.0876317442
H 3.3465254508 -2.8835311596 0.0975767897
H -3.3180685088 -2.8931587819 -0.0089116681
H 2.1765644982 -4.9723812927 0.0532798931
H -2.1426027300 -4.9777426098 0.0060361502
H 0.0185544674 -6.2563673505 0.0277671855
55
step=41 E=-1132.052673449965 Eh
N 7.0844430450 2.4329423562 0.1078883897
N -7.0868646130 2.3899523183 0.1868289814
N 0.0138236303 -2.3851546208 0.0288350936
C 5.9797359120 1.6067431547 0.0715866962
C -5.9736598055 1.5765967912 0.1366428981
C 3.6913736976 -0.1079689829 0.0302328766
C -3.6731462056 -0.1208315941 0.0708638006
C 4.6768890728 2.1244267613 -0.0877431205
C 6.1052137872 0.2035418142 0.1940586050
C -4.6686629450 2.1045415810 0.2320541914
C -6.0928148988 0.1755767382 -0.0149372065
C 3.5729763496 1.2816098251 -0.1002088517
C 4.9899761022 -0.6191944232 0.1758120138
C -3.5593828041 1.2691400698 0.2015481867
C -4.9721245180 -0.6392544231 -0.0423607859
C 2.4861809467 -0.9461560330 0.0106489207
C -2.4635065908 -0.9527074850 0.0585481210
C 1.1698052604 -3.0527390236 0.0407976287
C -1.1404789275 -3.0555945362 0.0182022948
C 8.4074844280 1.8599498243 0.1560028815
C 6.9293347664 3.8393724637 -0.1720990674
C -8.3970836335 1.8255273987 -0.0260810171
C -6.9228993004 3.8226594948 0.2105004775
C 2.4300175004 -2.2857554623 0.0537578267
C -2.4028674386 -2.2922100107 0.0171784387
C 1.2135552709 -4.4562910301 0.0423656331
C -1.1806833222 -4.4592830312 0.0152765290
C 0.0173139110 -5.1630401865 0.0280579337
H 4.5172259199 3.1974930716 -0.1988624600
H 7.0887178988 -0.2537769962 0.3082831370
H -4.5121950429 3.1789899662 0.3342958124
H -7.0758089307 -0.2862786034 -0.1142320284
H 2.5765639400 1.7191499948 -0.2203840486
H 5.1403606327 -1.6974163350 0.2816632881
H -2.5620421863 1.7132962274 0.2838967321
H -5.1182409414 -1.7165341469 -0.1627293485
H 1.5273643096 -0.4178710806 -0.0457343432
H -1.5062216559 -0.4199584655 0.0954839999
H 8.6473081662 1.2555491808 -0.7400742212
H 8.5364769359 1.2130109503 1.0401594796
H 9.1496545713 2.6654057876 0.2298270297
H 7.9051309840 4.3357532633 -0.0928922387
H 6.2517447596 4.3258284182 0.5504470798
H 6.5299119744 4.0302041228 -1.1866346865
H -8.6253996532 1.0392838888 0.7136813754
H -8.5142121137 1.3823490454 -1.0336330244
H -9.1544361519 2.6119286371 0.0872835829
H -7.9089311027 4.3007340983 0.2742273076
H -6.4138418253 4.2088336491 -0.6933901782
H -6.3396854402 4.1505805735 1.0880945364
H 3.3465995015 -2.8839491749 0.0977813834
H -3.3180006519 -2.8936413638 -0.0086052106
H 2.1766566605 -4.9728258140 0.0534414292
H -2.1425124676 -4.9782290297 0.0062517941
H 0.0186588221 -6.2568325068 0.0279105914
55
step=42 E=-1132.052673669330 Eh
N 7.0843763001 2.4325543191 0.1083467413
N -7.0867626960 2.3893752935 0.1872723267
N 0.0139040123 -2.3857263231 0.0291936505
C 5.9796955300 1.6063238003 0.0720488498
C -5.9735650029 1.5760138552 0.1370837494
C 3.6913874068 -0.1084572590 0.0306823693
C -3.6730626313 -0.1214267227 0.0712782551
C 4.6768363334 2.1239665856 -0.0873145184
C 6.1052133556 0.2031288545 0.1945586220
C -4.6685654537 2.1039497594 0.2325086633
C -6.0927293761 0.1749966360 -0.0145169440
C 3.5729502136 1.2811158265 -0.0997855740
C 4.9900008567 -0.6196414594 0.1763054027
C -3.5592905569 1.2685423411 0.2019875952
C -4.9720439451 -0.6398406462 -0.0419547641
C 2.4862204745 -0.9466792590 0.0110763799
C -2.4634264045 -0.9533063483 0.0589396720
C 1.1698968484 -3.0532924270 0.0411105688
C -1.1403892910 -3.0561816386 0.0185441782
C 8.4074335825 1.8596099122 0.1565725968
C 6.9292232098 3.8389949757 -0.1715575010
C -8.3969934512 1.8249537084 -0.0255690441
C -6.9227939641 3.8220796517 0.2110535804
C 2.4300940229 -2.2862836570 0.0540902741
C -2.4027847186 -2.2928085909 0.0175582516
C 1.2136680316 -4.4568438065 0.0426115681
C -1.1805726548 -4.4598701133 0.0155589401
C 0.0174359653 -5.1636088637 0.0282904424
H 4.5171437875 3.1970256377 -0.1984605628
H 7.0887288752 -0.2541566622 0.3088203028
H -4.5120917656 3.1783955821 0.3347685946
H -7.0757263141 -0.2868503602 -0.1138201164
H 2.5765267448 1.7186233991 -0.2199880771
H 5.1404127336 -1.6978560066 0.2821939318
H -2.5619469454 1.7126907761 0.2843445750
H -5.1181654523 -1.7171176984 -0.1623421165
H 1.5273871460 -0.4184181045 -0.0452471443
H -1.5061403864 -0.4205579533 0.0958632087
H 8.6473135167 1.2551449031 -0.7394447612
H 8.5364112090 1.2127453020 1.0407877158
H 9.1495745254 2.6650961837 0.2303571223
H 7.9050020941 4.3354041027 -0.0923159624
H 6.2516085308 4.3253873279 0.5510096016
H 6.5298038844 4.0298708127 -1.1860855187
H -8.6252879366 1.0387285390 0.7142209390
H -8.5141612238 1.3817516196 -1.0331051021
H -9.1543366126 2.6113630379 0.0878005039
H -7.9088258732 4.3001530244 0.2747858642
H -6.4137130776 4.2083150053 -0.6927968535
H -6.3395997715 4.1499391601 1.0886849057
H 3.3466920807 -2.8844584658 0.0980418258
H -3.3179149589 -2.8942445000 -0.0082159494
H 2.1767770744 -4.9733653931 0.0536471993
H -2.1423935349 -4.9788306172 0.0065256711
H 0.0187971864 -6.2574010252 0.0280930378
55
step=43 E=-1132.052673863336 Eh
N 7.0842988263 2.4322244294 0.1087466504
N -7.0866567698 2.3888797785 0.1876588838
N 0.0139773294 -2.3862363179 0.0295066986
C 5.9796460773 1.6059606869 0.0724523012
C -5.9734676197 1.5755096641 0.1374681937
C 3.6913930031 -0.1088916117 0.0310749218
C -3.6729799030 -0.1219485714 0.0716397693
C 4.6767731714 2.1235611734 -0.0869394545
C 6.1052060798 0.2027719949 0.1949943417
C -4.6684637277 2.1034337221 0.2329046752
C -6.0926439878 0.1744947631 -0.0141501175
C 3.5729139141 1.2806759521 -0.0994151973
C 4.9900190909 -0.6200330202 0.1767354054
C -3.5591964589 1.2680173026 0.2023704637
C -4.9719647702 -0.6403509683 -0.0416002819
C 2.4862524390 -0.9471498290 0.0114498904
C -2.4633492388 -0.9538342098 0.0592812733
C 1.1699776811 -3.0537880042 0.0413838175
C -1.1403088790 -3.0567019813 0.0188426678
C 8.4073725317 1.8593287861 0.1570685751
C 6.9290987496 3.8386733762 -0.1710841075
C -8.3968995137 1.8244648849 -0.0251223251
C -6.9226803232 3.8215811672 0.2115354518
C 2.4301620865 -2.2867582987 0.0543806431
C -2.4027095351 -2.2933362565 0.0178897621
C 1.2137650929 -4.4573386671 0.0428263192
C -1.1804771953 -4.4603911189 0.0158055638
C 0.0175403623 -5.1641166473 0.0284935127
H 4.5170497058 3.1966134216 -0.1981081735
H 7.0887336588 -0.2544796565 0.3092877098
H -4.5119815070 3.1778769154 0.3351802940
H -7.0756451076 -0.2873424375 -0.1134603736
H 2.5764787684 1.7181503987 -0.2196408330
H 5.1404601050 -1.6982405449 0.2826558390
H -2.5618493091 1.7121557745 0.2847345035
H -5.1180938168 -1.7176252857 -0.1620037406
H 1.5274027041 -0.4189132929 -0.0448210945
H -1.5060611841 -0.4210896398 0.0961938574
H 8.6473040237 1.2548093479 -0.7388970171
H 8.5363409927 1.2125292109 1.0413342009
H 9.1494838940 2.6648451371 0.2308184967
H 7.9048597745 4.3351125298 -0.0918126788
H 6.2514603553 4.3250062090 0.5515019620
H 6.5296807150 4.0295862025 -1.1856051371
H -8.6251775077 1.0382565486 0.7146921039
H -8.5141029432 1.3812420692 -1.0326444396
H -9.1542321642 2.6108836176 0.0882513485
H -7.9087107498 4.2996567499 0.2752724403
H -6.4135777833 4.2078678969 -0.6922801256
H -6.3395020907 4.1493852694 1.0891991679
H 3.3467745754 -2.8849154827 0.0982692196
H -3.3178390320 -2.8947741914 -0.0078761570
H 2.1768799768 -4.9738500112 0.0538269161
H -2.1422925818 -4.9793625272 0.0067648373
H 0.0189139807 -6.2579090084 0.0282524382
55
step=44 E=-1132.052674061439 Eh
N 7.0842175445 2.4318890371 0.1091555822
N -7.0865438818 2.3883752719 0.1880545456
N 0.0140485888 -2.3867611913 0.0298264866
C 5.9795929059 1.6055913212 0.0728646449
C -5.9733656378 1.5749938533 0.1378614007
C 3.6913967914 -0.1093340635 0.0314759311
C -3.6728971166 -0.1224874985 0.0720090398
C 4.6767061395 2.1231484778 -0.0865564849
C 6.1051959770 0.2024090113 0.1954399134
C -4.6683565861 2.1029030081 0.2333099654
C -6.0925577377 0.1739821397 -0.0137754006
C 3.5728747679 1.2802277898 -0.0990370857
C 4.9900355099 -0.6204320031 0.1771750542
C -3.5590984817 1.2674755163 0.2027621460
C -4.9718873867 -0.6408752745 -0.0412384714
C 2.4862832393 -0.9476291077 0.0118313211
C -2.4632734407 -0.9543822512 0.0596301170
C 1.1700591658 -3.0542962105 0.0416634695
C -1.1402291664 -3.0572408483 0.0191474093
C 8.4073088068 1.8590442586 0.1575759476
C 6.9289692883 3.8383464903 -0.1706006797
C -8.3968002742 1.8239709228 -0.0246655654
C -6.9225562844 3.8210731350 0.2120289522
C 2.4302290978 -2.2872421423 0.0546778554
C -2.4026353113 -2.2938843010 0.0182279280
C 1.2138659293 -4.4578463120 0.0430466471
C -1.1803784444 -4.4609298731 0.0160575419
C 0.0176495068 -5.1646386401 0.0287016119
H 4.5169509281 3.1961935201 -0.1977485075
H 7.0887360296 -0.2548079033 0.3097660118
H -4.5118634895 3.1773430139 0.3356020393
H -7.0755639605 -0.2878422822 -0.1130930297
H 2.5764274995 1.7176681151 -0.2192866484
H 5.1405064228 -1.6986322840 0.2831282609
H -2.5617462164 1.7116017829 0.2851336676
H -5.1180267015 -1.7181464311 -0.1616587676
H 1.5274167679 -0.4194172639 -0.0443867758
H -1.5059822937 -0.4216418779 0.0965319920
H 8.6472935422 1.2544691798 -0.7383366570
H 8.5362683355 1.2123114540 1.0418934370
H 9.1493893109 2.6645920443 0.2312903538
H 7.9047120401 4.3348164603 -0.0912988630
H 6.2513065862 4.3246186310 0.5520045530
H 6.5295525981 4.0292965421 -1.1851146464
H -8.6250636745 1.0377802544 0.7151733957
H -8.5140412131 1.3807276579 -1.0321734631
H -9.1541200139 2.6104012416 0.0887124490
H -7.9085840622 4.2991532094 0.2757706991
H -6.4134306129 4.2074114774 -0.6917507074
H -6.3393938308 4.1488190424 1.0897258828
H 3.3468570261 -2.8853806596 0.0985028194
H -3.3177632487 -2.8953245641 -0.0075298493
H 2.1769877074 -4.9743457062 0.0540119533
H -2.1421862570 -4.9799144679 0.0070089476
H 0.0190378922 -6.2584308386 0.0284161729
55
step=45 E=-1132.052674311757 Eh
N 7.0841574559 2.4314271543 0.1096892172
N -7.0864469187 2.3876909080 0.1885711972
N 0.0141477756 -2.3874134467 0.0302443991
C 5.9795612254 1.6050969167 0.0734027680
C -5.9732708395 1.5743101921 0.1383752505
C 3.6914212961 -0.1099006007 0.0319991862
C -3.6728032096 -0.1231700216 0.0724923715
C 4.6766616083 2.1226115899 -0.0860550877
C 6.1052060393 0.2019214265 0.1960197767
C -4.6682615291 2.1022174837 0.2338395273
C -6.0924638874 0.1733003114 -0.0132852922
C 3.5728579313 1.2796552743 -0.0985420429
C 4.9900715651 -0.6209547797 0.1777471431
C -3.5590044245 1.2667898384 0.2032742073
C -4.9717928002 -0.6415557744 -0.0407647233
C 2.4863350532 -0.9482327611 0.0123291555
C -2.4631789077 -0.9550611354 0.0600869458
C 1.1701682622 -3.0549295022 0.0420281159
C -1.1401207096 -3.0579067417 0.0195459946
C 8.4072639123 1.8586315436 0.1582361633
C 6.9288622449 3.8378977083 -0.1699677999
C -8.3967128756 1.8232806161 -0.0240693090
C -6.9224651313 3.8203867358 0.2126727592
C 2.4303230309 -2.2878508778 0.0550650661
C -2.4025353612 -2.2945623888 0.0186707982
C 1.2139961671 -4.4584786462 0.0433332743
C -1.1802500382 -4.4615967985 0.0163867889
C 0.0177896299 -5.1652881130 0.0289726902
H 4.5168759431 3.1956492720 -0.1972762027
H 7.0887576963 -0.2552604440 0.3103873191
H -4.5117686621 3.1766557422 0.3361528060
H -7.0754706356 -0.2885218137 -0.1126125479
H 2.5763994330 1.7170615178 -0.2188215602
H 5.1405705566 -1.6991472393 0.2837418032
H -2.5616523508 1.7109135683 0.2856553690
H -5.1179306288 -1.7188248165 -0.1612066753
H 1.5274503369 -0.4200471169 -0.0438188303
H -1.5058893506 -0.4223184982 0.0969746420
H 8.6473094784 1.2539817402 -0.7376081383
H 8.5362042490 1.2119831184 1.0426203912
H 9.1493147070 2.6642105168 0.2319045042
H 7.9045869418 4.3343965900 -0.0906267358
H 6.2511741587 4.3240977020 0.5526637786
H 6.5294484193 4.0289024227 -1.1844719063
H -8.6249457431 1.0371098160 0.7158022201
H -8.5139958086 1.3800082915 -1.0315586764
H -9.1540276413 2.6097148968 0.0893137585
H -7.9084964096 4.2984586717 0.2764202582
H -6.4133144490 4.2067993167 -0.6910602002
H -6.3393280516 4.1480653856 1.0904132305
H 3.3469680994 -2.8859691653 0.0988060858
H -3.3176599113 -2.8960090735 -0.0070761998
H 2.1771256812 -4.9749645660 0.0542518178
H -2.1420507065 -4.9805958544 0.0073281710
H 0.0191944140 -6.2590806093 0.0286289316
55
step=46 E=-1132.052674452225 Eh
N 7.0840704505 2.4312109886 0.1099715265
N -7.0863375025 2.3873580016 0.1888443495
N 0.0141961589 -2.3877964099 0.0304647993
C 5.9795000577 1.6048489461 0.0736874269
C -5.9731755894 1.5739608067 0.1386463610
C 3.6914117046 -0.1102154658 0.0322759320
C -3.6727343881 -0.1235529032 0.0727463763
C 4.6765869639 2.1223238615 -0.0857906600
C 6.1051849698 0.2016788895 0.1963272995
C -4.6681588902 2.1018480561 0.2341186878
C -6.0923901072 0.1729540196 -0.0130269443
C 3.5728083629 1.2793356219 -0.0982811054
C 4.9900746135 -0.6212301804 0.1780505436
C -3.5589146822 1.2664042654 0.2035436962
C -4.9717315787 -0.6419191471 -0.0405156156
C 2.4863497171 -0.9485811627 0.0125924126
C -2.4631205433 -0.9554585718 0.0603267862
C 1.1702238668 -3.0553005247 0.0422214804
C -1.1400661321 -3.0582996850 0.0197558504
C 8.4071938609 1.8584619916 0.1585861503
C 6.9287305312 3.8376859650 -0.1696343082
C -8.3966173412 1.8229655367 -0.0237537946
C -6.9223365173 3.8200499537 0.2130132913
C 2.4303672464 -2.2882026494 0.0552707862
C -2.4024836140 -2.2949601982 0.0189032423
C 1.2140657919 -4.4588492748 0.0434862273
C -1.1801821320 -4.4619895667 0.0165606340
C 0.0178650191 -5.1656689292 0.0291169584
H 4.5167716343 3.1953554292 -0.1970277544
H 7.0887484481 -0.2554718239 0.3107174133
H -4.5116503421 3.1762828294 0.3364433227
H -7.0754040060 -0.2888516623 -0.1123590398
H 2.5763383276 1.7167111977 -0.2185771156
H 5.1406020476 -1.6994166217 0.2840677692
H -2.5615555946 1.7105119888 0.2859298124
H -5.1178847613 -1.7191849119 -0.1609691631
H 1.5274507894 -0.4204174734 -0.0435196359
H -1.5058258275 -0.4227240455 0.0972072026
H 8.6472812418 1.2537759110 -0.7372215821
H 8.5361338062 1.2118608199 1.0430060698
H 9.1492163642 2.6640690504 0.2322298136
H 7.9044385669 4.3342140144 -0.0902726082
H 6.2510219308 4.3238387186 0.5530105158
H 6.5293158459 4.0287129272 -1.1841334617
H -8.6248463829 1.0368087900 0.7161346660
H -8.5139298772 1.3796800407 -1.0312333093
H -9.1539168048 2.6094139003 0.0896323413
H -7.9083620496 4.2981329299 0.2767641920
H -6.4131669232 4.2064939565 -0.6906949505
H -6.3392075886 4.1476837971 1.0907764929
H 3.3470245001 -2.8863055553 0.0989686176
H -3.3176086741 -2.8964060325 -0.0068382900
H 2.1772001817 -4.9753266670 0.0543810154
H -2.1419773835 -4.9809979733 0.0074963760
H 0.0192802731 -6.2594613159 0.0287429560
55
step=47 E=-1132.052674641574 Eh
N 7.0841680916 2.4307411546 0.1104328570
N -7.0864020308 2.3866950902 0.1892907917
N 0.0142812089 -2.3882616091 0.0308222485
C 5.9795913433 1.6043925895 0.0741503891
C -5.9732119964 1.5733403652 0.1390898158
C 3.6914911157 -0.1106559088 0.0327226317
C -3.6727125561 -0.1240942426 0.0731618672
C 4.6766852492 2.1218768415 -0.0853563041
C 6.1052623643 0.2012231825 0.1968211625
C -4.6682136151 2.1012715615 0.2345713993
C -6.0923779301 0.1723305384 -0.0126006212
C 3.5729016464 1.2788948171 -0.0978540391
C 4.9901461738 -0.6216777095 0.1785363017
C -3.5589413543 1.2658652715 0.2039806717
C -4.9716915327 -0.6425036958 -0.0401043683
C 2.4864261410 -0.9490153972 0.0130166398
C -2.4630713646 -0.9559588248 0.0607187648
C 1.1703183931 -3.0557511264 0.0425334444
C -1.1399735288 -3.0587784574 0.0200991784
C 8.4072825685 1.8579831700 0.1591524416
C 6.9288413094 3.8372339443 -0.1690820558
C -8.3966694546 1.8222485816 -0.0232348946
C -6.9224600085 3.8193908502 0.2135650739
C 2.4304537806 -2.2886403900 0.0556003104
C -2.4024029724 -2.2954586425 0.0192852894
C 1.2141776550 -4.4592995463 0.0437337322
C -1.1800706238 -4.4624688857 0.0168470027
C 0.0179856351 -5.1661333323 0.0293535416
H 4.5168806426 3.1949074151 -0.1966144152
H 7.0888205870 -0.2559326249 0.3112445031
H -4.5117423066 3.1757097112 0.3369115554
H -7.0753769328 -0.2895078375 -0.1119376998
H 2.5764368100 1.7162760762 -0.2181733535
H 5.1406612992 -1.6998625711 0.2845854714
H -2.5615971100 1.7100057499 0.2863719826
H -5.1178072436 -1.7197726214 -0.1605737837
H 1.5275251910 -0.4208495511 -0.0430343098
H -1.5057915943 -0.4231970747 0.0975844958
H 8.6473978850 1.2532270206 -0.7365994593
H 8.5361824013 1.2114458052 1.0436271038
H 9.1493109088 2.6635880032 0.2327588131
H 7.9045529110 4.3337490815 -0.0896861062
H 6.2511306501 4.3233480475 0.5535879031
H 6.5294351124 4.0283269388 -1.1835712752
H -8.6248419377 1.0361021174 0.7166839142
H -8.5140038885 1.3789312002 -1.0306972734
H -9.1539936436 2.6086724888 0.0901551520
H -7.9085063658 4.2974297014 0.2773216535
H -6.4132854478 4.2059155313 -0.6901047536
H -6.3393636382 4.1469911895 1.0913634015
H 3.3471182852 -2.8867382119 0.0992262877
H -3.3175168583 -2.8969223312 -0.0064444980
H 2.1773188083 -4.9757657169 0.0545887306
H -2.1418593037 -4.9814898360 0.0077761035
H 0.0194147297 -6.2599256941 0.0289316224
55
step=48 E=-1132.052674907960 Eh
N 7.0841019659 2.4302508735 0.1110024383
N -7.0862886888 2.3859712211 0.1898420748
N 0.0143773324 -2.3889618902 0.0312657323
C 5.9795525310 1.6038706226 0.0747235108
C -5.9731063324 1.5726105530 0.1396369002
C 3.6915124143 -0.1112524359 0.0332784090
C -3.6726181881 -0.1248346389 0.0736743119
C 4.6766337633 2.1213113748 -0.0848214398
C 6.1052655113 0.2007077400 0.1974368497
C -4.6681054044 2.1005331431 0.2351333787
C -6.0922817234 0.1716037951 -0.0120781292
C 3.5728795702 1.2782925574 -0.0973268889
C 4.9901775801 -0.6222313696 0.1791433257
C -3.5588385807 1.2651216113 0.2045231090
C -4.9715996278 -0.6432356453 -0.0396003890
C 2.4864753658 -0.9496490879 0.0135450021
C -2.4629796095 -0.9567006653 0.0612024431
C 1.1704298685 -3.0564250280 0.0429225114
C -1.1398637875 -3.0595013642 0.0205226682
C 8.4072329449 1.8575440150 0.1598551941
C 6.9287283930 3.8367585088 -0.1684054452
C -8.3965695811 1.8215251560 -0.0225976842
C -6.9223448308 3.8186639869 0.2142506385
C 2.4305451290 -2.2892805302 0.0560129720
C -2.4023045429 -2.2961997498 0.0197547288
C 1.2143188246 -4.4599724584 0.0440427382
C -1.1799306774 -4.4631921559 0.0171992156
C 0.0181412480 -5.1668310035 0.0296463348
H 4.5167979110 3.1943332019 -0.1961089010
H 7.0888364926 -0.2564120428 0.3119035927
H -4.5116287314 3.1749681474 0.3374954601
H -7.0752839223 -0.2902262935 -0.1114239907
H 2.5764025277 1.7156381788 -0.2176773505
H 5.1407216251 -1.7004077907 0.2852352290
H -2.5614914512 1.7092540484 0.2869233627
H -5.1177197506 -1.7205014622 -0.1600921589
H 1.5275555578 -0.4215092145 -0.0424327083
H -1.5057001492 -0.4239376899 0.0980526518
H 8.6474119420 1.2527096020 -0.7358253311
H 8.5361122979 1.2110948628 1.0444002143
H 9.1492304615 2.6631815939 0.2334132251
H 7.9044221447 4.3333018793 -0.0889678253
H 6.2509924608 4.3227964119 0.5542933129
H 6.5293251914 4.0279112030 -1.1828834709
H -8.6247132942 1.0354014689 0.7173563063
H -8.5139517001 1.3781770191 -1.0300399104
H -9.1538840834 2.6079575294 0.0907977041
H -7.9083920929 4.2966998910 0.2780138345
H -6.4131423571 4.2052639181 -0.6893699757
H -6.3392729348 4.1461899007 1.0920944669
H 3.3472292840 -2.8873550552 0.0995518390
H -3.3174131041 -2.8976719774 -0.0059630570
H 2.1774711077 -4.9764192847 0.0548500801
H -2.1417077248 -4.9822338035 0.0081179787
H 0.0195940535 -6.2606232011 0.0291646721
55
step=49 E=-1132.052675115337 Eh
N 7.0840165941 2.4298895902 0.1114430307
N -7.0861722089 2.3854243218 0.1902688339
N 0.0144579777 -2.3895247056 0.0316085152
C 5.9794997390 1.6034703379 0.0751672470
C -5.9729995176 1.5720550493 0.1400599272
C 3.6915204944 -0.1117324099 0.0337083711
C -3.6725262775 -0.1254078772 0.0740700603
C 4.6765649558 2.1208624623 -0.0844075766
C 6.1052622194 0.2003152625 0.1979139799
C -4.6679945028 2.0999655271 0.2355674159
C -6.0921880409 0.1710519291 -0.0116739048
C 3.5728396006 1.2778066249 -0.0969193854
C 4.9902019780 -0.6226609678 0.1796131540
C -3.5587338804 1.2645463135 0.2049419544
C -4.9715132423 -0.6437963719 -0.0392108197
C 2.4865138679 -0.9501721073 0.0139539560
C -2.4628933134 -0.9572825396 0.0615758715
C 1.1705189858 -3.0569744709 0.0432234845
C -1.1397758124 -3.0600760997 0.0208495910
C 8.4071671515 1.8572398432 0.1603989044
C 6.9285881149 3.8364063003 -0.1678831671
C -8.3964662276 1.8209866297 -0.0221035789
C -6.9222209209 3.8181136357 0.2147807530
C 2.4306208025 -2.2898082125 0.0563328841
C -2.4022203607 -2.2967821067 0.0201169324
C 1.2144244089 -4.4605214332 0.0442815888
C -1.1798264470 -4.4637663800 0.0174707646
C 0.0182537791 -5.1673918088 0.0298721120
H 4.5166944218 3.1938772576 -0.1957180119
H 7.0888462150 -0.2567665432 0.3124145836
H -4.5115096515 3.1743980762 0.3379464526
H -7.0751937213 -0.2907672667 -0.1110260174
H 2.5763492277 1.7151155912 -0.2172942840
H 5.1407795569 -1.7008298302 0.2857384038
H -2.5613822576 1.7086691224 0.2873489021
H -5.1176415410 -1.7210595602 -0.1597197317
H 1.5275754907 -0.4220592128 -0.0419679242
H -1.5056101869 -0.4245230096 0.0984142785
H 8.6474031917 1.2523475339 -0.7352257167
H 8.5360391130 1.2108615417 1.0449981956
H 9.1491301079 2.6629122402 0.2339189929
H 7.9042614305 4.3329844504 -0.0884140118
H 6.2508263084 4.3223772523 0.5548377635
H 6.5291843031 4.0275993840 -1.1823528873
H -8.6245917103 1.0348822740 0.7178774110
H -8.5138885249 1.3776154575 -1.0295298073
H -9.1537685039 2.6074296636 0.0912964143
H -7.9082668501 4.2961510787 0.2785494398
H -6.4129957115 4.2047699103 -0.6888021674
H -6.3391662576 4.1455800798 1.0926593140
H 3.3473200411 -2.8878646741 0.0998049904
H -3.3173278021 -2.8982555719 -0.0055918731
H 2.1775824292 -4.9769582457 0.0550523182
H -2.1415969144 -4.9828187999 0.0083810326
H 0.0197187539 -6.2611838550 0.0293439624
55
step=50 E=-1132.052675295469 Eh
N 7.0839316486 2.4295866338 0.1118160333
N -7.0860589461 2.3849679344 0.1906307296
N 0.0145236962 -2.3900088746 0.0319000329
C 5.9794416906 1.6031349448 0.0755432044
C -5.9728981967 1.5715851112 0.1404189037
C 3.6915172949 -0.1121370254 0.0340737155
C -3.6724463847 -0.1259045377 0.0744063224
C 4.6764939877 2.1204871919 -0.0840570339
C 6.1052448489 0.1999857270 0.1983186553
C -4.6678870522 2.0994790258 0.2359371598
C -6.0921044017 0.1705848969 -0.0113320324
C 3.5727955601 1.2773968787 -0.0965733822
C 4.9902107227 -0.6230257160 0.1800124151
C -3.5586375227 1.2640461840 0.2052987798
C -4.9714392814 -0.6442764913 -0.0388810939
C 2.4865362183 -0.9506120733 0.0143014898
C -2.4628219563 -0.9577902371 0.0618934885
C 1.1705938214 -3.0574412228 0.0434792522
C -1.1397009442 -3.0605739614 0.0211271304
C 8.4070985530 1.8569843368 0.1608595193
C 6.9284575279 3.8361111048 -0.1674413596
C -8.3963665798 1.8205423947 -0.0216863213
C -6.9220938745 3.8176538242 0.2152315746
C 2.4306813018 -2.2902519802 0.0566048156
C -2.4021516042 -2.2972895163 0.0204243176
C 1.2145194229 -4.4609873228 0.0444840073
C -1.1797337647 -4.4642648146 0.0177006084
C 0.0183575453 -5.1678731588 0.0300629738
H 4.5165932025 3.1934956386 -0.1953873041
H 7.0888406396 -0.2570629215 0.3128480170
H -4.5113893925 3.1739084389 0.3383314822
H -7.0751159067 -0.2912205612 -0.1106906201
H 2.5762934876 1.7146733751 -0.2169689717
H 5.1408169860 -1.7011880386 0.2861661940
H -2.5612805237 1.7081551697 0.2877123548
H -5.1175796181 -1.7215364408 -0.1594054551
H 1.5275812021 -0.4225242632 -0.0415729190
H -1.5055356339 -0.4250365229 0.0987227078
H 8.6473825471 1.2520423841 -0.7347175047
H 8.5359638434 1.2106662779 1.0455052241
H 9.1490328493 2.6626857984 0.2343470876
H 7.9041138793 4.3327181430 -0.0879456954
H 6.2506741566 4.3220258953 0.5552982543
H 6.5290532726 4.0273383304 -1.1819040088
H -8.6244805168 1.0344546649 0.7183171521
H -8.5138236561 1.3771526150 -1.0290996060
H -9.1536555769 2.6069975399 0.0917172493
H -7.9081362533 4.2956978644 0.2790043409
H -6.4128464204 4.2043557449 -0.6883186593
H -6.3390528491 4.1450659284 1.0931405257
H 3.3473958198 -2.8882889831 0.1000199825
H -3.3172577962 -2.8987653737 -0.0052776347
H 2.1776846261 -4.9774114468 0.0552234559
H -2.1414972499 -4.9833305447 0.0086032269
H 0.0198378740 -6.2616653338 0.0294948330
55
step=51 E=-1132.052675447826 Eh
N 7.0838431977 2.4293416350 0.1121303168
N -7.0859474984 2.3845904817 0.1909356633
N 0.0145801826 -2.3904293503 0.0321458266
C 5.9793809754 1.6028558864 0.0758600981
C -5.9727995428 1.5711932079 0.1407214406
C 3.6915114469 -0.1124877107 0.0343817996
C -3.6723708138 -0.1263254047 0.0746898312
C 4.6764188590 2.1201656576 -0.0837617406
C 6.1052271391 0.1997123704 0.1986601661
C -4.6677818001 2.0990690969 0.2362491276
C -6.0920249737 0.1701961183 -0.0110441974
C 3.5727473821 1.2770409417 -0.0962819270
C 4.9902184104 -0.6233337996 0.1803492127
C -3.5585433011 1.2636224904 0.2056000181
C -4.9713705540 -0.6446796970 -0.0386034555
C 2.4865564459 -0.9509987482 0.0145946613
C -2.4627557501 -0.9582240494 0.0621613549
C 1.1706569887 -3.0578505065 0.0436949777
C -1.1396386700 -3.0610035545 0.0213608564
C 8.4070279459 1.8567886889 0.1612478438
C 6.9283211101 3.8358713160 -0.1670697552
C -8.3962686277 1.8201805562 -0.0213350275
C -6.9219660215 3.8172726447 0.2156116477
C 2.4307331590 -2.2906421984 0.0568344277
C -2.4020919039 -2.2977235376 0.0206831574
C 1.2145961381 -4.4613962455 0.0446545662
C -1.1796587873 -4.4646942720 0.0178938612
C 0.0184396046 -5.1682915983 0.0302234446
H 4.5164862921 3.1931675930 -0.1951089686
H 7.0888355927 -0.2573031178 0.3132140619
H -4.5112704998 3.1734952810 0.3386565871
H -7.0750426052 -0.2915946287 -0.1104084900
H 2.5762330242 1.7142846492 -0.2166951734
H 5.1408550404 -1.7014896036 0.2865273012
H -2.5611801339 1.7077171584 0.2880194949
H -5.1175239969 -1.7219365378 -0.1591410823
H 1.5275861990 -0.4229344236 -0.0412401332
H -1.5054646424 -0.4254777154 0.0989832435
H 8.6473567067 1.2518062233 -0.7342888764
H 8.5358922651 1.2105226108 1.0459329653
H 9.1489323500 2.6625199799 0.2347076756
H 7.9039597570 4.3325093785 -0.0875521014
H 6.2505163615 4.3217344783 0.5556853983
H 6.5289150911 4.0271240576 -1.1815264602
H -8.6243761300 1.0341076388 0.7186870626
H -8.5137567005 1.3767758380 -1.0287374208
H -9.1535432720 2.6066488603 0.0920716199
H -7.9080037488 4.2953255297 0.2793876851
H -6.4126983671 4.2040114601 -0.6879107812
H -6.3389356473 4.1446369284 1.0935462731
H 3.3474604331 -2.8886633766 0.1002018896
H -3.3171987058 -2.8991983088 -0.0050133804
H 2.1777660470 -4.9778122722 0.0553677317
H -2.1414171627 -4.9837687748 0.0087897381
H 0.0199297739 -6.2620837003 0.0296213762
55
step=52 E=-1132.052675762817 Eh
N 7.0838141766 2.4287112416 0.1128356902
N -7.0858598692 2.3836712563 0.1916181073
N 0.0146998210 -2.3912573991 0.0326865690
C 5.9793741440 1.6022014770 0.0765662238
C -5.9727107595 1.5702805466 0.1413953659
C 3.6915541436 -0.1132032874 0.0350601332
C -3.6722765201 -0.1272248193 0.0753152634
C 4.6764031478 2.1194765185 -0.0830985734
C 6.1052529224 0.1990633738 0.1994108835
C -4.6676957515 2.0981623229 0.2369317854
C -6.0919309636 0.1692846181 -0.0103942163
C 3.5727569168 1.2763199416 -0.0956316714
C 4.9902670875 -0.6240136137 0.1810863710
C -3.5584551661 1.2627205503 0.2062559544
C -4.9712729442 -0.6455853859 -0.0379793576
C 2.4866239386 -0.9517461482 0.0152381406
C -2.4626552759 -0.9591115425 0.0627497629
C 1.1707965558 -3.0586454532 0.0441722212
C -1.1395014476 -3.0618620486 0.0218802774
C 8.4070101745 1.8562000044 0.1621103877
C 6.9282543118 3.8352626412 -0.1662255732
C -8.3961921522 1.8192458454 -0.0205378379
C -6.9218932763 3.8163516565 0.2164509277
C 2.4308482382 -2.2913963312 0.0573391731
C -2.4019718950 -2.2986097627 0.0212578439
C 1.2147750528 -4.4621900558 0.0450397279
C -1.1794820517 -4.4655535591 0.0183316749
C 0.0186371624 -5.1691169447 0.0305915041
H 4.5164462712 3.1924709770 -0.1944755006
H 7.0888709833 -0.2579222526 0.3140147886
H -4.5111896466 3.1725868912 0.3393611635
H -7.0749479442 -0.2925082409 -0.1097616583
H 2.5762337468 1.7135338645 -0.2160796184
H 5.1409253661 -1.7021613446 0.2873111393
H -2.5610932030 1.7068170538 0.2886792501
H -5.1174199535 -1.7228404604 -0.1585389843
H 1.5276352111 -0.4237069948 -0.0405081839
H -1.5053699349 -0.4263539472 0.0995482816
H 8.6474054081 1.2511226869 -0.7333429054
H 8.5358414793 1.2100350661 1.0468777555
H 9.1488896350 2.6619592850 0.2355137218
H 7.9038785412 4.3319206610 -0.0866574797
H 6.2504279000 4.3210390071 0.5565693638
H 6.5288515199 4.0265993584 -1.1806665079
H -8.6242518832 1.0332017197 0.7195323305
H -8.5137387506 1.3757970798 -1.0279129607
H -9.1534634249 2.6057163642 0.0928753249
H -7.9079375469 4.2943893266 0.2802375719
H -6.4126004719 4.2031844096 -0.6870156689
H -6.3388925017 4.1436361847 1.0944367606
H 3.3475985360 -2.8893906854 0.1006033437
H -3.3170684602 -2.9001010740 -0.0044203556
H 2.1779595364 -4.9785805743 0.0556975738
H -2.1412255286 -4.9846553627 0.0092170482
H 0.0201581997 -6.2629088099 0.0299210824
55
step=53 E=-1132.052675960168 Eh
N 7.0837280647 2.4283649230 0.1132581592
N -7.0857465163 2.3831450318 0.1920284309
N 0.0147809789 -2.3918004976 0.0330170882
C 5.9793205059 1.6018165281 0.0769923458
C -5.9726052785 1.5697469898 0.1418023308
C 3.6915629802 -0.1136699538 0.0354743439
C -3.6721839802 -0.1277741575 0.0756962677
C 4.6763331033 2.1190426183 -0.0826994414
C 6.1052487816 0.1986856418 0.1998680348
C -4.6675862321 2.0976172678 0.2373518502
C -6.0918366130 0.1687538354 -0.0100077598
C 3.5727167630 1.2758475512 -0.0952380477
C 4.9902919674 -0.6244306387 0.1815373325
C -3.5583520256 1.2621680660 0.2066613782
C -4.9711840264 -0.6461233888 -0.0376066402
C 2.4866630096 -0.9522552816 0.0156326376
C -2.4625680093 -0.9596667983 0.0631097937
C 1.1708835637 -3.0591767892 0.0444634659
C -1.1394147441 -3.0624126542 0.0221945630
C 8.4069436473 1.8559105217 0.1626295563
C 6.9281129554 3.8349246322 -0.1657238835
C -8.3960905801 1.8187259119 -0.0200661763
C -6.9217737388 3.8158223045 0.2169628575
C 2.4309238840 -2.2919095754 0.0576490358
C -2.4018885736 -2.2991649880 0.0216053794
C 1.2148750111 -4.4627205958 0.0452715367
C -1.1793836370 -4.4661045974 0.0185924566
C 0.0187428558 -5.1696575797 0.0308095992
H 4.5163404671 3.1920297687 -0.1940974751
H 7.0888807013 -0.2582614708 0.3145031591
H -4.5110725900 3.1720390692 0.3397994674
H -7.0748572284 -0.2930297952 -0.1093833167
H 2.5761797447 1.7130241151 -0.2157081931
H 5.1409847061 -1.7025708061 0.2877931619
H -2.5609867266 1.7062553397 0.2890930248
H -5.1173377044 -1.7233756672 -0.1581845532
H 1.5276563041 -0.4242431469 -0.0400604653
H -1.5052800290 -0.4269135461 0.0998990723
H 8.6473932508 1.2507785471 -0.7327707588
H 8.5357702859 1.2098132085 1.0474484469
H 9.1487888169 2.6617042816 0.2359957863
H 7.9037168835 4.3316175089 -0.0861270637
H 6.2502622761 4.3206354348 0.5570935351
H 6.5287075792 4.0262997973 -1.1801559741
H -8.6241332261 1.0326987039 0.7200286126
H -8.5136731196 1.3752561979 -1.0274270892
H -9.1533515347 2.6052055725 0.0933510391
H -7.9078171419 4.2938608853 0.2807536037
H -6.4124576129 4.2027104925 -0.6864660653
H -6.3387913097 4.1430486780 1.0949836325
H 3.3476879496 -2.8898870072 0.1008498663
H -3.3169854703 -2.9006564845 -0.0040658049
H 2.1780639886 -4.9791030599 0.0558951437
H -2.1411227731 -4.9852150358 0.0094686560
H 0.0202737206 -6.2634496510 0.0300945456
55
step=54 E=-1132.052676116577 Eh
N 7.0836402849 2.4281085804 0.1135836428
N -7.0856333902 2.3827534628 0.1923445990
N 0.0148369815 -2.3922329758 0.0332705180
C 5.9792592866 1.6015271405 0.0773199112
C -5.9725057778 1.5693395346 0.1421154740
C 3.6915557222 -0.1140273114 0.0357917660
C -3.6721095260 -0.1282129417 0.0759888901
C 4.6762585264 2.1187133981 -0.0823941035
C 6.1052285704 0.1984017715 0.2002202977
C -4.6674795381 2.0971906191 0.2376735231
C -6.0917579224 0.1683496020 -0.0097090297
C 3.5726685993 1.2754848727 -0.0949371247
C 4.9902967956 -0.6247483563 0.1818842689
C -3.5582575258 1.2617261987 0.2069715464
C -4.9711169268 -0.6465431837 -0.0373188777
C 2.4866808723 -0.9526468692 0.0159343306
C -2.4625036442 -0.9601192655 0.0633860227
C 1.1709486637 -3.0595943068 0.0446861548
C -1.1393508525 -3.0628581527 0.0224359565
C 8.4068727677 1.8557010872 0.1630311458
C 6.9279792449 3.8346745423 -0.1653387550
C -8.3959914321 1.8183498739 -0.0197012271
C -6.9216432269 3.8154271148 0.2173556462
C 2.4309757102 -2.2923047867 0.0578858135
C -2.4018288681 -2.2996174762 0.0218726058
C 1.2149577020 -4.4631376321 0.0454482806
C -1.1793027821 -4.4665499724 0.0187926846
C 0.0188330543 -5.1700877435 0.0309762605
H 4.5162356800 3.1916944814 -0.1938090175
H 7.0888724244 -0.2585131203 0.3148806535
H -4.5109510059 3.1716091708 0.3401341374
H -7.0747852012 -0.2934182376 -0.1090894637
H 2.5761199578 1.7126295462 -0.2154253084
H 5.1410181266 -1.7028822975 0.2881646007
H -2.5608856789 1.7057979991 0.2894083346
H -5.1172849575 -1.7237921769 -0.1579098314
H 1.5276587935 -0.4246583315 -0.0397184669
H -1.5052112889 -0.4273731718 0.1001672948
H 8.6473666267 1.2505269635 -0.7323278242
H 8.5356963539 1.2096567480 1.0478904858
H 9.1486895096 2.6615234180 0.2363690134
H 7.9035662958 4.3313968452 -0.0857193051
H 6.2501079057 4.3203335236 0.5574951708
H 6.5285722451 4.0260774252 -1.1797646206
H -8.6240267900 1.0323384676 0.7204135276
H -8.5136061740 1.3748639484 -1.0270505177
H -9.1532377324 2.6048430358 0.0937188593
H -7.9076816985 4.2934751822 0.2811499134
H -6.4123064907 4.2023526564 -0.6860451037
H -6.3386712706 4.1426044106 1.0954025436
H 3.3477538313 -2.8902644222 0.1010380037
H -3.3169253091 -2.9011095223 -0.0037926677
H 2.1781529733 -4.9795091113 0.0560450673
H -2.1410350280 -4.9856722274 0.0096621422
H 0.0203773428 -6.2638796112 0.0302266830
55
step=55 E=-1132.052676412391 Eh
N 7.0836053194 2.4275087360 0.1142584690
N -7.0855527719 2.3818634913 0.1930004267
N 0.0149649174 -2.3930352003 0.0337955503
C 5.9792538890 1.6008935162 0.0779985183
C -5.9724179560 1.5684649741 0.1427649380
C 3.6916114652 -0.1147408172 0.0364487959
C -3.6720026929 -0.1290590767 0.0765952462
C 4.6762386077 2.1180318354 -0.0817538098
C 6.1052693143 0.1977754024 0.2009421074
C -4.6673983222 2.0963293821 0.2383406409
C -6.0916549557 0.1674766721 -0.0090899293
C 3.5726786071 1.2747653654 -0.0943070171
C 4.9903654228 -0.6254127439 0.1825951556
C -3.5581668656 1.2608787640 0.2076145990
C -4.9710041929 -0.6474017717 -0.0367226030
C 2.4867671007 -0.9534017359 0.0165597008
C -2.4623866998 -0.9609488264 0.0639585760
C 1.1710873569 -3.0603800320 0.0451497544
C -1.1392150018 -3.0636742308 0.0229367430
C 8.4068557556 1.8551580674 0.1638536944
C 6.9278914542 3.8340932541 -0.1645320487
C -8.3959165744 1.8174381455 -0.0189452999
C -6.9215874681 3.8145361894 0.2181698690
C 2.4310999649 -2.2930664259 0.0583777086
C -2.4017005305 -2.3004460086 0.0224262090
C 1.2151153969 -4.4639228337 0.0458200145
C -1.1791466561 -4.4673657866 0.0192107479
C 0.0189992434 -5.1708872492 0.0313276157
H 4.5161823932 3.1910043458 -0.1931971249
H 7.0889262965 -0.2591016295 0.3156485961
H -4.5108832338 3.1707469596 0.3408285203
H -7.0746775230 -0.2942997112 -0.1084806209
H 2.5761172569 1.7118731354 -0.2148267853
H 5.1411179785 -1.7035379181 0.2889200477
H -2.5607995813 1.7049596778 0.2900623316
H -5.1171582146 -1.7246496879 -0.1573406652
H 1.5277258121 -0.4254384518 -0.0390082935
H -1.5050994296 -0.4281923480 0.1007240632
H 8.6474185159 1.2498949174 -0.7314248366
H 8.5356582773 1.2092137237 1.0487922132
H 9.1486384666 2.6610166910 0.2371341611
H 7.9034593694 4.3308456792 -0.0848680728
H 6.2499962490 4.3196623009 0.5583416482
H 6.5284821012 4.0255709922 -1.1789417125
H -8.6239052918 1.0314495532 0.7212104863
H -8.5135790423 1.3739140865 -1.0262710396
H -9.1531651638 2.6039281090 0.0944804886
H -7.9076361741 4.2925619046 0.2819707398
H -6.4122241163 4.2015601593 -0.6851722491
H -6.3386516234 4.1416369511 1.0962709343
H 3.3478947776 -2.8910083651 0.1014303247
H -3.3167920218 -2.9019459887 -0.0032267210
H 2.1783177869 -4.9802826946 0.0563635518
H -2.1408711238 -4.9865013811 0.0100666411
H 0.0205583248 -6.2646788630 0.0305091853
55
step=56 E=-1132.052676577152 Eh
N 7.0835139428 2.4272342980 0.1146041757
N -7.0854353378 2.3814471183 0.1933360495
N 0.0150262498 -2.3934911620 0.0340626159
C 5.9791906657 1.6005856290 0.0783458382
C -5.9723141845 1.5680325318 0.1430964900
C 3.6916025345 -0.1151177520 0.0367839188
C -3.6719249054 -0.1295237341 0.0769033263
C 4.6761622114 2.1176843405 -0.0814290881
C 6.1052476053 0.1974732554 0.2013137566
C -4.6672867363 2.0958772637 0.2386788880
C -6.0915722311 0.1670469827 -0.0087723129
C 3.5726286928 1.2743837447 -0.0939878668
C 4.9903692474 -0.6257492951 0.1829606759
C -3.5580683819 1.2604104527 0.2079398239
C -4.9709333320 -0.6478476041 -0.0364174809
C 2.4867836413 -0.9538139504 0.0168779223
C -2.4623192589 -0.9614267937 0.0642487720
C 1.1711570499 -3.0608190913 0.0453857492
C -1.1391448984 -3.0641430206 0.0231918479
C 8.4067802897 1.8549301106 0.1642782875
C 6.9277537278 3.8338256917 -0.1641210767
C -8.3958137310 1.8170368175 -0.0185558841
C -6.9214526020 3.8141160705 0.2185849530
C 2.4311549792 -2.2934819844 0.0586283304
C -2.4016367056 -2.3009240044 0.0227079962
C 1.2152046181 -4.4643608402 0.0460095642
C -1.1790591970 -4.4678354369 0.0194243101
C 0.0190973752 -5.1713408404 0.0315071469
H 4.5160756857 3.1906509809 -0.1928888422
H 7.0889163835 -0.2593709734 0.3160460276
H -4.5107559758 3.1702915358 0.3411793822
H -7.0746020365 -0.2947135487 -0.1081664062
H 2.5760555484 1.7114595174 -0.2145259407
H 5.1411507096 -1.7038683034 0.2893102164
H -2.5606944587 1.7044751561 0.2903912456
H -5.1171021610 -1.7250922004 -0.1570481356
H 1.5277258718 -0.4258762563 -0.0386478049
H -1.5050280656 -0.4286774812 0.1010046156
H 8.6473877806 1.2496232014 -0.7309574257
H 8.5355786762 1.2090402220 1.0492583153
H 9.1485348886 2.6608168572 0.2375294502
H 7.9033045783 4.3306074492 -0.0844331893
H 6.2498380824 4.3193402595 0.5587710565
H 6.5283423029 4.0253349179 -1.1785235338
H -8.6237932554 1.0310653374 0.7216220931
H -8.5135110636 1.3734945171 -1.0258689030
H -9.1530473830 2.6035405426 0.0948731053
H -7.9074963244 4.2921512368 0.2823903286
H -6.4120688513 4.2011788816 -0.6847284370
H -6.3385269207 4.1411662252 1.0967125593
H 3.3479650059 -2.8914038263 0.1016306840
H -3.3167273612 -2.9024261424 -0.0029376728
H 2.1784138422 -4.9807081152 0.0565260322
H -2.1407771914 -4.9869839763 0.0102736647
H 0.0206713344 -6.2651326626 0.0306539674
55
step=57 E=-1132.052676721330 Eh
N 7.0834246160 2.4270012909 0.1149033799
N -7.0853241415 2.3810877027 0.1936278211
N 0.0150797324 -2.3938959838 0.0342986581
C 5.9791282039 1.6003190738 0.0786481606
C -5.9722161771 1.5676575728 0.1433861294
C 3.6915941338 -0.1154533065 0.0370789250
C -3.6718512044 -0.1299292331 0.0771753265
C 4.6760856189 2.1173771484 -0.0811461389
C 6.1052267862 0.1972120278 0.2016389611
C -4.6671816682 2.0954831354 0.2389801307
C -6.0914944189 0.1666753668 -0.0084989892
C 3.5725786425 1.2740428102 -0.0937079879
C 4.9903735038 -0.6260446394 0.1832818790
C -3.5579750247 1.2600016142 0.2082309908
C -4.9708666401 -0.6482341009 -0.0361535093
C 2.4868004749 -0.9541837531 0.0171590452
C -2.4622557681 -0.9618463181 0.0645063189
C 1.1712178288 -3.0612113815 0.0455933144
C -1.1390848671 -3.0645579034 0.0234153124
C 8.4067084606 1.8547449244 0.1646464452
C 6.9276171819 3.8335977092 -0.1637672839
C -8.3957153335 1.8166931974 -0.0182232244
C -6.9213242150 3.8137530834 0.2189506253
C 2.4312042334 -2.2938548146 0.0588495125
C -2.4015795213 -2.3013436342 0.0229550301
C 1.2152800492 -4.4647527067 0.0461735124
C -1.1789856260 -4.4682502979 0.0196082042
C 0.0191788179 -5.1717433606 0.0316602878
H 4.5159680985 3.1903377697 -0.1926214181
H 7.0889079139 -0.2595998963 0.3163937522
H -4.5106365185 3.1698941318 0.3414951352
H -7.0745305040 -0.2950696615 -0.1079005002
H 2.5759935829 1.7110864602 -0.2142619615
H 5.1411843286 -1.7041574568 0.2896538652
H -2.5605949342 1.7040510455 0.2906900245
H -5.1170492868 -1.7254752965 -0.1567986267
H 1.5277279465 -0.4262695113 -0.0383294417
H -1.5049598340 -0.4291050081 0.1012573811
H 8.6473578833 1.2493995703 -0.7305511290
H 8.5355072443 1.2089047182 1.0496639047
H 9.1484341417 2.6606605830 0.2378702625
H 7.9031509324 4.3304098009 -0.0840600211
H 6.2496818362 4.3190626207 0.5591406980
H 6.5282023353 4.0251307285 -1.1781635901
H -8.6236904571 1.0307350609 0.7219711309
H -8.5134403568 1.3731379689 -1.0255266451
H -9.1529351117 2.6032097374 0.0952081470
H -7.9073631389 4.2917976780 0.2827578530
H -6.4119189779 4.2008517514 -0.6843347965
H -6.3384100055 4.1407557262 1.0971043652
H 3.3480271637 -2.8917603028 0.1018068088
H -3.3166705990 -2.9028449112 -0.0026872842
H 2.1784944165 -4.9810910014 0.0566652329
H -2.1406981466 -4.9874084598 0.0104499919
H 0.0207637144 -6.2655351067 0.0307740988
55
step=58 E=-1132.052677019236 Eh
N 7.0833945689 2.4263916738 0.1155873175
N -7.0852405230 2.3801927414 0.1942923155
N 0.0151993895 -2.3947005660 0.0348198051
C 5.9791219516 1.5996845674 0.0793309343
C -5.9721301649 1.5667705748 0.1440407203
C 3.6916365446 -0.1161489541 0.0377312866
C -3.6717581979 -0.1308012692 0.0777802884
C 4.6760702972 2.1167074110 -0.0805072546
C 6.1052541167 0.1965836262 0.2023654543
C -4.6670981815 2.0946028424 0.2396397360
C -6.0914016715 0.1657888728 -0.0078655310
C 3.5725874218 1.2733422154 -0.0930832751
C 4.9904232627 -0.6267029436 0.1839930609
C -3.5578887709 1.2591270798 0.2088635410
C -4.9707695226 -0.6491140283 -0.0355465006
C 2.4868676046 -0.9549117137 0.0177766661
C -2.4621562899 -0.9627050799 0.0650747360
C 1.1713554207 -3.0619841604 0.0460533897
C -1.1389492688 -3.0653890579 0.0239166724
C 8.4066882877 1.8541752041 0.1654842283
C 6.9275499286 3.8330084290 -0.1629510787
C -8.3956421414 1.8157814337 -0.0174449929
C -6.9212565894 3.8128565914 0.2197636610
C 2.4313183830 -2.2945890492 0.0593360811
C -2.4014612055 -2.3022011871 0.0235100993
C 1.2154540488 -4.4655239425 0.0465455043
C -1.1788133146 -4.4690828333 0.0200313079
C 0.0193707262 -5.1725447757 0.0320160547
H 4.5159286924 3.1896612686 -0.1920114569
H 7.0889440095 -0.2601980190 0.3171707018
H -4.5105588723 3.1690126879 0.3421745293
H -7.0744369771 -0.2959595279 -0.1072672001
H 2.5759938857 1.7103565490 -0.2136725445
H 5.1412556614 -1.7048082867 0.2904104815
H -2.5605104325 1.7031793146 0.2913236195
H -5.1169448816 -1.7263539287 -0.1562111521
H 1.5277767203 -0.4270230099 -0.0376300469
H -1.5048664490 -0.4299527554 0.1018024372
H 8.6474025937 1.2487372991 -0.7296314525
H 8.5354536004 1.2084338929 1.0505816721
H 9.1483899986 2.6601174258 0.2386534237
H 7.9030693261 4.3298404073 -0.0831954016
H 6.2495931344 4.3183899953 0.5599945136
H 6.5281383802 4.0246212183 -1.1773325085
H -8.6235690180 1.0298524244 0.7227978311
H -8.5134244882 1.3721814383 -1.0247210159
H -9.1528593563 2.6022995076 0.0959920490
H -7.9073023610 4.2908853358 0.2835813731
H -6.4118285725 4.2000448079 -0.6834691983
H -6.3383703306 4.1397844888 1.0979655554
H 3.3481631999 -2.8924681737 0.1021961429
H -3.3165427249 -2.9037187387 -0.0021142185
H 2.1786817774 -4.9818382311 0.0569842199
H -2.1405125448 -4.9882666581 0.0108630201
H 0.0209844362 -6.2663365563 0.0310641854
55
step=59 E=-1132.052677184040 Eh
N 7.0832977124 2.4261161803 0.1159379161
N -7.0851207785 2.3797665448 0.1946335263
N 0.0152664063 -2.3951698053 0.0350951522
C 5.9790567080 1.5993699592 0.0796848260
C -5.9720221811 1.5663311564 0.1443789969
C 3.6916347292 -0.1165468046 0.0380760472
C -3.6716706627 -0.1312666903 0.0780970744
C 4.6759877436 2.1163437141 -0.0801730385
C 6.1052387579 0.1962753189 0.2027427617
C -4.6669840000 2.0941465000 0.2399898822
C -6.0913113151 0.1653527091 -0.0075451919
C 3.5725359657 1.2729387917 -0.0927533025
C 4.9904377241 -0.6270519251 0.1843656910
C -3.5577846038 1.2586583634 0.2092015542
C -4.9706881944 -0.6495623349 -0.0352374682
C 2.4868956287 -0.9553513653 0.0181054761
C -2.4620775896 -0.9631820857 0.0653743997
C 1.1714274517 -3.0624437452 0.0462967801
C -1.1388775083 -3.0658644413 0.0241778658
C 8.4066129812 1.8539582020 0.1659115122
C 6.9273963272 3.8327389327 -0.1625332662
C -8.3955355431 1.8153687785 -0.0170544642
C -6.9211223868 3.8124268103 0.2201897197
C 2.4313803956 -2.2950322616 0.0595952372
C -2.4013908440 -2.3026782979 0.0237982703
C 1.2155370257 -4.4659830426 0.0467397640
C -1.1787324125 -4.4695583521 0.0202479580
C 0.0194577823 -5.1730113733 0.0321981733
H 4.5158088613 3.1892903854 -0.1916927071
H 7.0889435327 -0.2604681382 0.3175718675
H -4.5104324767 3.1685531593 0.3425406656
H -7.0743521880 -0.2963822102 -0.1069542681
H 2.5759278004 1.7099155014 -0.2133588944
H 5.1413059822 -1.7051500223 0.2908068781
H -2.5604010367 1.7026972637 0.2916693234
H -5.1168752571 -1.7267989985 -0.1559180033
H 1.5277877394 -0.4274891423 -0.0372572145
H -1.5047830621 -0.4304378845 0.1020957868
H 8.6473757931 1.2484782247 -0.7291615871
H 8.5353819041 1.2082728951 1.0510506446
H 9.1482794887 2.6599354153 0.2390494105
H 7.9028954934 4.3296068632 -0.0827556852
H 6.2494175767 4.3180605391 0.5604329665
H 6.5279788235 4.0243814183 -1.1769062463
H -8.6234539616 1.0294550065 0.7232082785
H -8.5133494014 1.3717525069 -1.0243189427
H -9.1527393278 2.6018992270 0.0963853757
H -7.9071643946 4.2904627701 0.2840099701
H -6.4116715675 4.1996578936 -0.6830112811
H -6.3382500570 4.1393023559 1.0984213008
H 3.3482377916 -2.8928956329 0.1024034072
H -3.3164741491 -2.9041934608 -0.0018214188
H 2.1787683910 -4.9822910474 0.0571507881
H -2.1404279665 -4.9887491890 0.0110712610
H 0.0210793270 -6.2668032401 0.0312092928
55
step=60 E=-1132.052677316874 Eh
N 7.0832072746 2.4259046464 0.1162154128
N -7.0850096948 2.3794382681 0.1949042959
N 0.0153148999 -2.3955491437 0.0353113981
C 5.9789925592 1.5991251461 0.0799641964
C -5.9719253274 1.5659856234 0.1446467687
C 3.6916228764 -0.1168573988 0.0383466783
C -3.6716006128 -0.1316463274 0.0783467527
C 4.6759101529 2.1160600905 -0.0799129170
C 6.1052150816 0.1960356671 0.2030435382
C -4.6668791733 2.0937801716 0.2402656858
C -6.0912367019 0.1650103773 -0.0072907794
C 3.5724838727 1.2726228463 -0.0924969726
C 4.9904379625 -0.6273239385 0.1846617258
C -3.5576928732 1.2582754837 0.2094672334
C -4.9706260258 -0.6499214215 -0.0349926431
C 2.4869081400 -0.9556950631 0.0183626737
C -2.4620187237 -0.9635770827 0.0656101086
C 1.1714837883 -3.0628104680 0.0464874628
C -1.1388222691 -3.0662549297 0.0243832797
C 8.4065393204 1.8537921465 0.1662538670
C 6.9272602641 3.8325319190 -0.1622059204
C -8.3954381838 1.8150584105 -0.0167432585
C -6.9209915267 3.8120948753 0.2205266663
C 2.4314248219 -2.2953788861 0.0597983181
C -2.4013384233 -2.3030734688 0.0240252984
C 1.2156083080 -4.4663493553 0.0468914945
C -1.1786628396 -4.4699487169 0.0204181403
C 0.0195353668 -5.1733887838 0.0323405291
H 4.5157016553 3.1890011947 -0.1914471127
H 7.0889316146 -0.2606767393 0.3178944864
H -4.5103114723 3.1681835656 0.3428284902
H -7.0742847072 -0.2967078199 -0.1067045628
H 2.5758644002 1.7095686612 -0.2131181794
H 5.1413342563 -1.7054161594 0.2911238940
H -2.5603023894 1.7022978759 0.2919400013
H -5.1168288019 -1.7271546818 -0.1556850799
H 1.5277859240 -0.4278558100 -0.0369669729
H -1.5047191588 -0.4308414306 0.1023257497
H 8.6473421506 1.2482767759 -0.7287837114
H 8.5353084481 1.2081530200 1.0514277806
H 9.1481782503 2.6597968233 0.2393669910
H 7.9027428445 4.3294294239 -0.0824099331
H 6.2492620333 4.3178068531 0.5607744015
H 6.5278399549 4.0241954401 -1.1765736106
H -8.6233535245 1.0291584909 0.7235359320
H -8.5132803437 1.3714293131 -1.0239981588
H -9.1526268091 2.6016029419 0.0966989891
H -7.9070277290 4.2901422928 0.2843495442
H -6.4115211924 4.1993565053 -0.6826498126
H -6.3381275426 4.1389260491 1.0987810892
H 3.3482950266 -2.8932256674 0.1025661470
H -3.3164221228 -2.9045878130 -0.0015902741
H 2.1788449465 -4.9826480327 0.0572803075
H -2.1403525373 -4.9891495856 0.0112350147
H 0.0211682687 -6.2671804545 0.0313222053
55
step=61 E=-1132.052677633718 Eh
N 7.0831790194 2.4252480506 0.1169417952
N -7.0849328137 2.3784663476 0.1956134576
N 0.0154547472 -2.3964121996 0.0358845251
C 5.9789931839 1.5984378503 0.0806967313
C -5.9718389838 1.5650321478 0.1453512293
C 3.6916839139 -0.1176237845 0.0390599173
C -3.6714910884 -0.1325652212 0.0790086395
C 4.6758966333 2.1153269657 -0.0792148609
C 6.1052597078 0.1953555133 0.2038180850
C -4.6668008612 2.0928429284 0.2409963545
C -6.0911306637 0.1640582431 -0.0066238000
C 3.5725000286 1.2718515297 -0.0918079698
C 4.9905115437 -0.6280433580 0.1854265474
C -3.5576037546 1.2573541596 0.2101735793
C -4.9705076515 -0.6508561206 -0.0343481676
C 2.4869988824 -0.9565017349 0.0190432604
C -2.4618971064 -0.9644747280 0.0662373601
C 1.1716355498 -3.0636511708 0.0469922992
C -1.1386723086 -3.0671335090 0.0249279216
C 8.4065267561 1.8531897003 0.1671316592
C 6.9271811448 3.8318962210 -0.1613334170
C -8.3953646511 1.8140593899 -0.0159347808
C -6.9209443853 3.8111221351 0.2214112874
C 2.4315595275 -2.2961922909 0.0603339877
C -2.4012002650 -2.3039695529 0.0246272397
C 1.2157842864 -4.4671886392 0.0472936332
C -1.1784887011 -4.4708282485 0.0208694513
C 0.0197230364 -5.1742476202 0.0327185150
H 4.5156553210 3.1882598882 -0.1907756140
H 7.0889890688 -0.2613191272 0.3187136673
H -4.5102495712 3.1672451586 0.3435927583
H -7.0741728627 -0.2976708559 -0.1060540522
H 2.5758678155 1.7087612025 -0.2124581512
H 5.1414384105 -1.7061271029 0.2919325844
H -2.5602196962 1.7013873286 0.2926633402
H -5.1166928232 -1.7280880163 -0.1550738434
H 1.5278564753 -0.4286892795 -0.0361932282
H -1.5046050994 -0.4317263214 0.1029413350
H 8.6473959538 1.2475790615 -0.7278214598
H 8.5352740229 1.2076559823 1.0523886466
H 9.1481337276 2.6592290086 0.2401807901
H 7.9026461230 4.3288206366 -0.0814940756
H 6.2491640984 4.3170764322 0.5616945316
H 6.5277534913 4.0236447989 -1.1756808317
H -8.6232314279 1.0281816573 0.7243857884
H -8.5132509912 1.3703909441 -1.0231660784
H -9.1525588178 2.6005979193 0.0975109263
H -7.9069928546 4.2891434189 0.2852367774
H -6.4114408459 4.1984930191 -0.6816980500
H -6.3381250536 4.1378695171 1.0997282856
H 3.3484484669 -2.8940180868 0.1029927877
H -3.3162770448 -2.9054959362 -0.0009796221
H 2.1790297680 -4.9834718966 0.0576235900
H -2.1401697403 -4.9900463265 0.0116692306
H 0.0213751246 -6.2680394529 0.0316226726
55
step=62 E=-1132.052677767074 Eh
N 7.0830827644 2.4250367762 0.1172238543
N -7.0848152232 2.3781370448 0.1958880353
N 0.0155035743 -2.3967989475 0.0360999600
C 5.9789246101 1.5981919697 0.0809791567
C -5.9717369411 1.5646838150 0.1456212028
C 3.6916694285 -0.1179390167 0.0393307193
C -3.6714184914 -0.1329509445 0.0792574992
C 4.6758141401 2.1150405564 -0.0789519731
C 6.1052334911 0.1951149000 0.2041205970
C -4.6666898658 2.0924721627 0.2412697038
C -6.0910531485 0.1637129354 -0.0063642081
C 3.5724441357 1.2715312800 -0.0915504493
C 4.9905101876 -0.6283177195 0.1857230591
C -3.5575072144 1.2569652487 0.2104354615
C -4.9704438609 -0.6512200243 -0.0340997582
C 2.4870097464 -0.9568520393 0.0192998341
C -2.4618366430 -0.9648772203 0.0664710891
C 1.1716916888 -3.0640248467 0.0471837277
C -1.1386163215 -3.0675310455 0.0251339412
C 8.4064480956 1.8530261256 0.1674786428
C 6.9270373770 3.8316894258 -0.1609994892
C -8.3952627748 1.8137505182 -0.0156145475
C -6.9208041168 3.8107888655 0.2217489701
C 2.4316034125 -2.2965455531 0.0605374909
C -2.4011476308 -2.3043723284 0.0248544554
C 1.2158559608 -4.4675618662 0.0474487778
C -1.1784188463 -4.4712259740 0.0210429188
C 0.0198011683 -5.1746324722 0.0328655137
H 4.5155417810 3.1879675985 -0.1905262067
H 7.0889751790 -0.2615275907 0.3190381763
H -4.5101206462 3.1668710289 0.3438756409
H -7.0741035187 -0.2979982818 -0.1057955216
H 2.5757999423 1.7084090453 -0.2122163573
H 5.1414666238 -1.7063954579 0.2922493153
H -2.5601154123 1.7009806300 0.2929267350
H -5.1166466686 -1.7284485920 -0.1548347905
H 1.5278523297 -0.4290637383 -0.0359043760
H -1.5045389225 -0.4321385367 0.1031666622
H 8.6473587451 1.2473813883 -0.7274394153
H 8.5351964973 1.2075378927 1.0527697533
H 9.1480261280 2.6590940192 0.2405040311
H 7.9024850027 4.3286446578 -0.0811409002
H 6.2490001196 4.3168211311 0.5620429398
H 6.5276068812 4.0234599149 -1.1753413050
H -8.6231261701 1.0278887195 0.7247248585
H -8.5131814879 1.3700673131 -1.0228349890
H -9.1524396276 2.6003051692 0.0978341090
H -7.9068456571 4.2888237180 0.2855788475
H -6.4112827481 4.1981874841 -0.6813379515
H -6.3379900792 4.1374924183 1.1000865765
H 3.3485054193 -2.8943540484 0.1031574260
H -3.3162251404 -2.9058978380 -0.0007461455
H 2.1791068147 -4.9838355565 0.0577578930
H -2.1400943793 -4.9904541809 0.0118374315
H 0.0214647018 -6.2684243158 0.0317424720
55
step=63 E=-1132.052677880431 Eh
N 7.0829845697 2.4248744744 0.1174500439
N -7.0847005638 2.3778786323 0.1961092000
N 0.0155439269 -2.3971266918 0.0362789977
C 5.9788532410 1.5979949418 0.0812082315
C -5.9716384491 1.5644047223 0.1458406092
C 3.6916508577 -0.1182036492 0.0395546812
C -3.6713509083 -0.1332702375 0.0794633022
C 4.6757285897 2.1148038434 -0.0787375013
C 6.1052038974 0.1949229661 0.2043673459
C -4.6665821655 2.0921688319 0.2414981371
C -6.0909803780 0.1634373834 -0.0061574255
C 3.5723843412 1.2712616250 -0.0913381435
C 4.9905049606 -0.6285427441 0.1859669214
C -3.5574145532 1.2566425565 0.2106561220
C -4.9703855899 -0.6515152423 -0.0339001840
C 2.4870157039 -0.9571507130 0.0195134321
C -2.4617824358 -0.9652156499 0.0666659426
C 1.1717378614 -3.0643428869 0.0473416574
C -1.1385705240 -3.0678673911 0.0253030794
C 8.4063690863 1.8529135728 0.1677572475
C 6.9268904576 3.8315297094 -0.1607318529
C -8.3951634733 1.8135168737 -0.0153618537
C -6.9206640077 3.8105263835 0.2220269460
C 2.4316394876 -2.2968467486 0.0607060164
C -2.4011031971 -2.3047110948 0.0250410639
C 1.2159141192 -4.4678795793 0.0475738382
C -1.1783624684 -4.4715622764 0.0211820798
C 0.0198640102 -5.1749585709 0.0329819287
H 4.5154254532 3.1877253573 -0.1903235726
H 7.0889579673 -0.2616881869 0.3193020990
H -4.5099940842 3.1665640959 0.3441153892
H -7.0740388851 -0.2982546866 -0.1055944459
H 2.5757281452 1.7081082345 -0.2120160802
H 5.1414909913 -1.7066147471 0.2925103955
H -2.5600148083 1.7006390356 0.2931533309
H -5.1166070369 -1.7287401064 -0.1546463963
H 1.5278442089 -0.4293853450 -0.0356628864
H -1.5044781990 -0.4324881796 0.1033582720
H 8.6473175529 1.2472410310 -0.7271312465
H 8.5351245150 1.2074655168 1.0530773394
H 9.1479169857 2.6590110476 0.2407607694
H 7.9023207155 4.3285167639 -0.0808594064
H 6.2488345574 4.3166176285 0.5623231761
H 6.5274546987 4.0233146884 -1.1750687319
H -8.6230309025 1.0276677411 0.7249902285
H -8.5131079667 1.3698247175 -1.0225748869
H -9.1523220002 2.6000887601 0.0980887076
H -7.9066978108 4.2885769206 0.2858580509
H -6.4111225002 4.1979483082 -0.6810383635
H -6.3378562928 4.1371882423 1.1003848068
H 3.3485529395 -2.8946401474 0.1032921787
H -3.3161823689 -2.9062338463 -0.0005573429
H 2.1791690435 -4.9841460447 0.0578646598
H -2.1400335620 -4.9907982038 0.0119704388
H 0.0215363111 -6.2687503142 0.0318339334
55
step=64 E=-1132.052678030138 Eh
N 7.0830870765 2.4244764151 0.1178303837
N -7.0847725781 2.3773172763 0.1964816243
N 0.0156093830 -2.3975023043 0.0365745778
C 5.9789436795 1.5976156227 0.0815892310
C -5.9716843032 1.5638821828 0.1462097475
C 3.6917235549 -0.1185567319 0.0399217554
C -3.6713450512 -0.1337206881 0.0798080960
C 4.6758267371 2.1144387480 -0.0783783202
C 6.1052752862 0.1945433269 0.2047719660
C -4.6666442895 2.0916856409 0.2418764339
C -6.0909827907 0.1629127147 -0.0058044563
C 3.5724740339 1.2709083750 -0.0909852789
C 4.9905674925 -0.6289100463 0.1863643752
C -3.5574510016 1.2561940487 0.2110208478
C -4.9703632883 -0.6520049240 -0.0335602081
C 2.4870813776 -0.9574906274 0.0198618839
C -2.4617516183 -0.9656282294 0.0669915223
C 1.1718152826 -3.0647007693 0.0476006296
C -1.1384966735 -3.0682586131 0.0255862066
C 8.4064583209 1.8524930777 0.1682211199
C 6.9270166317 3.8311486304 -0.1602761661
C -8.3952203030 1.8129006161 -0.0149337052
C -6.9207929006 3.8099696028 0.2224875027
C 2.4317085132 -2.2971893822 0.0609795327
C -2.4010414966 -2.3051221260 0.0253555885
C 1.2160098932 -4.4682370258 0.0477801922
C -1.1782659855 -4.4719534159 0.0214178407
C 0.0199701285 -5.1753328945 0.0331779681
H 4.5155378653 3.1873605261 -0.1899797630
H 7.0890226736 -0.2620772000 0.3197330691
H -4.5100898543 3.1660842862 0.3445084934
H -7.0740274045 -0.2988081341 -0.1052464532
H 2.5758244355 1.7077645654 -0.2116810737
H 5.1415370334 -1.7069818921 0.2929321821
H -2.5600646574 1.7002198519 0.2935234866
H -5.1165505662 -1.7292327697 -0.1543210352
H 1.5279109477 -0.4297189861 -0.0352670963
H -1.5044613465 -0.4328749585 0.1036746229
H 8.6474211312 1.2467608639 -0.7266222774
H 8.5351746575 1.2070955733 1.0535856904
H 9.1480202552 2.6585803919 0.2411930644
H 7.9024550201 4.3281154758 -0.0803782219
H 6.2489657224 4.3162110292 0.5628016893
H 6.5275868082 4.0229918163 -1.1746037982
H -8.6230366794 1.0270580969 0.7254424781
H -8.5131761146 1.3691816092 -1.0221329023
H -9.1524057173 2.5994463074 0.0985179652
H -7.9068468311 4.2879780438 0.2863210079
H -6.4112471886 4.1974614686 -0.6805446493
H -6.3380161249 4.1366065413 1.1008760823
H 3.3486277746 -2.8949785612 0.1035090497
H -3.3161091751 -2.9066623008 -0.0002355633
H 2.1792721984 -4.9844907058 0.0580393828
H -2.1399288223 -4.9912035878 0.0121992926
H 0.0216582894 -6.2691243464 0.0319903590
55
step=65 E=-1132.052678262506 Eh
N 7.0830146418 2.4240312970 0.1183538255
N -7.0846646422 2.3766456573 0.1969932628
N 0.0157079239 -2.3981526730 0.0369812240
C 5.9789013206 1.5971357938 0.0821145844
C -5.9715810264 1.5632085987 0.1467155779
C 3.6917445208 -0.1191177827 0.0404291131
C -3.6712489739 -0.1343996465 0.0802791735
C 4.6757695961 2.1139122856 -0.0778853640
C 6.1052792945 0.1940698858 0.2053327278
C -4.6665398698 2.0910074747 0.2423953293
C -6.0908842452 0.1622411268 -0.0053220193
C 3.5724487670 1.2703414531 -0.0905003582
C 4.9906011239 -0.6294237600 0.1869157439
C -3.5573507211 1.2555120265 0.2115203238
C -4.9702673348 -0.6526796825 -0.0330962351
C 2.4871324805 -0.9580919067 0.0203440256
C -2.4616568614 -0.9663059510 0.0674361085
C 1.1719244874 -3.0653332150 0.0479592487
C -1.1383895825 -3.0689233686 0.0259738004
C 8.4064014018 1.8520966817 0.1688618713
C 6.9268949251 3.8307162179 -0.1596533361
C -8.3951227731 1.8122256326 -0.0143445798
C -6.9206868192 3.8092952686 0.2231211598
C 2.4318019932 -2.2977957189 0.0613603731
C -2.4009428568 -2.3057992859 0.0257843369
C 1.2161399778 -4.4688685485 0.0480669267
C -1.1781377169 -4.4726186634 0.0217404328
C 0.0201096698 -5.1759803673 0.0334483433
H 4.5154458191 3.1868258580 -0.1895101277
H 7.0890408199 -0.2625126473 0.3203320070
H -4.5099826411 3.1654033522 0.3450485918
H -7.0739313455 -0.2994744973 -0.1047712414
H 2.5757858902 1.7071599005 -0.2112225569
H 5.1416033147 -1.7074873940 0.2935193385
H -2.5599627217 1.6995322009 0.2940307504
H -5.1164563971 -1.7299048599 -0.1538779565
H 1.5279433512 -0.4303484478 -0.0347221164
H -1.5043671754 -0.4335518300 0.1041074873
H 8.6474209667 1.2462946837 -0.7259176109
H 8.5351023771 1.2067786811 1.0542893164
H 9.1479340367 2.6582147238 0.2417888051
H 7.9023152455 4.3277125202 -0.0797212706
H 6.2488220915 4.3157061028 0.5634539001
H 6.5274627475 4.0226129547 -1.1739688952
H -8.6229115502 1.0264036766 0.7260641908
H -8.5131197793 1.3684774123 -1.0215252452
H -9.1523016815 2.5987769740 0.0991104733
H -7.9067427716 4.2872985078 0.2869591639
H -6.4111154714 4.1968564912 -0.6798655408
H -6.3379342730 4.1358661535 1.1015516991
H 3.3487387229 -2.8955638619 0.1038142945
H -3.3160073437 -2.9073452799 0.0002018035
H 2.1794097421 -4.9851092211 0.0582846143
H -2.1397927422 -4.9918835300 0.0125107131
H 0.0218138328 -6.2697717363 0.0322064928
55
step=66 E=-1132.052678409576 Eh
N 7.0828978301 2.4238041307 0.1186615993
N -7.0845210073 2.3762904663 0.1972938533
N 0.0157558731 -2.3985880993 0.0372214148
C 5.9788176219 1.5968663503 0.0824249679
C -5.9714601274 1.5628255139 0.1470123993
C 3.6917212848 -0.1194638604 0.0407296954
C -3.6711673052 -0.1348343926 0.0805557985
C 4.6756695217 2.1135968765 -0.0775940257
C 6.1052447299 0.1938066169 0.2056647100
C -4.6664071163 2.0905931214 0.2427016160
C -6.0907975690 0.1618629497 -0.0050406799
C 3.5723772883 1.2699894473 -0.0902135878
C 4.9905935150 -0.6297234007 0.1872423349
C -3.5572365129 1.2550736073 0.2118154177
C -4.9701989918 -0.6530824635 -0.0328254809
C 2.4871384281 -0.9584783701 0.0206299976
C -2.4615920621 -0.9667661688 0.0676973245
C 1.1719840359 -3.0657506344 0.0481720031
C -1.1383309968 -3.0693768466 0.0262015483
C 8.4063087885 1.8519328744 0.1692383263
C 6.9267167122 3.8304928486 -0.1592894679
C -8.3950001927 1.8119048219 -0.0139995214
C -6.9205077438 3.8089341570 0.2234953679
C 2.4318453477 -2.2981858398 0.0615870232
C -2.4008872666 -2.3062598893 0.0260352634
C 1.2162213769 -4.4692856100 0.0482371669
C -1.1780585384 -4.4730714900 0.0219295100
C 0.0202003458 -5.1764137380 0.0336076947
H 4.5153111928 3.1865045632 -0.1892329845
H 7.0890198634 -0.2627398999 0.3206864003
H -4.5098258402 3.1649845756 0.3453688292
H -7.0738549039 -0.2998278894 -0.1044954856
H 2.5757010105 1.7067723323 -0.2109514150
H 5.1416290176 -1.7077804893 0.2938673298
H -2.5598378879 1.6990700171 0.2943319303
H -5.1164122983 -1.7303029269 -0.1536209005
H 1.5279320756 -0.4307623739 -0.0343997611
H -1.5042941055 -0.4340248532 0.1043632986
H 8.6473766474 1.2460949741 -0.7255028511
H 8.5350180863 1.2066665503 1.0547033078
H 9.1478031742 2.6580885086 0.2421370643
H 7.9021152921 4.3275289026 -0.0793389135
H 6.2486202570 4.3154259434 0.5638350270
H 6.5272778439 4.0224102595 -1.1735983354
H -8.6227942300 1.0261004242 0.7264268144
H -8.5130333004 1.3681443258 -1.0211696713
H -9.1521536748 2.5984799062 0.0994585692
H -7.9065527533 4.2869593433 0.2873361584
H -6.4109109545 4.1965246167 -0.6794639578
H -6.3377615388 4.1354503457 1.1019513387
H 3.3487979424 -2.8959332528 0.1039970411
H -3.3159518447 -2.9078044483 0.0004564669
H 2.1794990062 -4.9855124788 0.0584311131
H -2.1397046627 -4.9923507916 0.0126921347
H 0.0219212986 -6.2702047231 0.0323336432
55
step=67 E=-1132.052678693363 Eh
N 7.0829190056 2.4231558837 0.1193563754
N -7.0845042483 2.3753346977 0.1979740761
N 0.0159019195 -2.3993736318 0.0377598461
C 5.9788581335 1.5961981982 0.0831213164
C -5.9714177901 1.5619098508 0.1476845596
C 3.6918055836 -0.1201898563 0.0414007246
C -3.6710731630 -0.1356775978 0.0811808170
C 4.6757009409 2.1128952759 -0.0769358812
C 6.1053150696 0.1931443362 0.2064023900
C -4.6663809642 2.0897159900 0.2433896473
C -6.0907114799 0.1609462162 -0.0043988415
C 3.5724311306 1.2692590678 -0.0895672230
C 4.9906853267 -0.6304141475 0.1879672127
C -3.5571851869 1.2542309647 0.2124773965
C -4.9700883167 -0.6539639965 -0.0322086351
C 2.4872453484 -0.9592349019 0.0212678818
C -2.4614732098 -0.9675713232 0.0682869968
C 1.1721351060 -3.0665283790 0.0486479742
C -1.1381820435 -3.0701672117 0.0267156040
C 8.4063389872 1.8513221642 0.1700822510
C 6.9267049056 3.8298661403 -0.1584583361
C -8.3949762783 1.8108963128 -0.0132161408
C -6.9205496320 3.8079811305 0.2243357083
C 2.4319858694 -2.2989480764 0.0620918811
C -2.4007459349 -2.3070632291 0.0266038677
C 1.2163835406 -4.4700627738 0.0486199468
C -1.1778965694 -4.4738616082 0.0223590997
C 0.0203667249 -5.1771973837 0.0339694121
H 4.5153198735 3.1857967371 -0.1886012847
H 7.0890981019 -0.2633740670 0.3214707275
H -4.5098334646 3.1641094723 0.3460845207
H -7.0737552344 -0.3007725273 -0.1038621188
H 2.5757468734 1.7060150970 -0.2103363922
H 5.1417418634 -1.7084640333 0.2946353551
H -2.5597996602 1.6982554149 0.2950034534
H -5.1162669759 -1.7311861192 -0.1530310279
H 1.5280233381 -0.4315384106 -0.0336784502
H -1.5041874221 -0.4348073461 0.1049374569
H 8.6474666028 1.2453904416 -0.7245773620
H 8.5350170449 1.2061554842 1.0556272477
H 9.1478114598 2.6575029049 0.2429222470
H 7.9020919056 4.3269175059 -0.0784640029
H 6.2485931817 4.3147173314 0.5647086333
H 6.5272643429 4.0218670317 -1.1727496734
H -8.6227045439 1.0251114181 0.7272535869
H -8.5130475926 1.3670921860 -1.0203614297
H -9.1521503564 2.5974508147 0.1002459998
H -7.9066163158 4.2859604685 0.2881820519
H -6.4109342401 4.1956828124 -0.6785639200
H -6.3378484085 4.1344338654 1.1028467705
H 3.3489519249 -2.8966821669 0.1044029815
H -3.3158030954 -2.9086194812 0.0010368653
H 2.1796650811 -4.9862838547 0.0587601721
H -2.1395385572 -4.9931480193 0.0131074126
H 0.0220945971 -6.2709882751 0.0326251024
55
step=68 E=-1132.052678842669 Eh
N 7.0828038656 2.4229250466 0.1196671785
N -7.0843649116 2.3749722097 0.1982779033
N 0.0159553395 -2.3998067690 0.0380007106
C 5.9787739101 1.5959301710 0.0834334884
C -5.9712976744 1.5615233262 0.1479839751
C 3.6917833695 -0.1205382996 0.0417022161
C -3.6709897412 -0.1361106405 0.0814582387
C 4.6756007719 2.1125811068 -0.0766420036
C 6.1052790782 0.1928823616 0.2067346580
C -4.6662499793 2.0893016736 0.2436960870
C -6.0906214138 0.1605630998 -0.0041134096
C 3.5723612082 1.2689058794 -0.0892783611
C 4.9906789227 -0.6307161898 0.1882941035
C -3.5570728537 1.2537933317 0.2127716458
C -4.9700148959 -0.6543702182 -0.0319347903
C 2.4872520876 -0.9596244107 0.0215545463
C -2.4614051674 -0.9680248262 0.0685484622
C 1.1721962803 -3.0669440519 0.0488622697
C -1.1381191614 -3.0706136606 0.0269448568
C 8.4062412547 1.8511401472 0.1704609629
C 6.9265394208 3.8296405317 -0.1580879112
C -8.3948549553 1.8105591217 -0.0128657895
C -6.9203816540 3.8076137750 0.2247117501
C 2.4320324165 -2.2993407441 0.0623198224
C -2.4006881966 -2.3075168186 0.0268561036
C 1.2164643497 -4.4704772514 0.0487932977
C -1.1778177595 -4.4743093469 0.0225511927
C 0.0204568374 -5.1776284323 0.0341326135
H 4.5151838987 3.1854757886 -0.1883204547
H 7.0890766431 -0.2635989160 0.3218247759
H -4.5096801139 3.1636907221 0.3464035979
H -7.0736754850 -0.3011337493 -0.1035804263
H 2.5756626966 1.7056256829 -0.2100625354
H 5.1417703916 -1.7087593193 0.2949827590
H -2.5596781205 1.6977953238 0.2953018222
H -5.1162151526 -1.7315880930 -0.1527695390
H 1.5280122441 -0.4319565901 -0.0333554191
H -1.5041128174 -0.4352735247 0.1051920966
H 8.6474106980 1.2451713477 -0.7241612128
H 8.5349206567 1.2060221322 1.0560423464
H 9.1476843178 2.6573499902 0.2432741055
H 7.9019083840 4.3267237909 -0.0780741677
H 6.2484082899 4.3144386153 0.5650972442
H 6.5270935900 4.0216677329 -1.1723716628
H -8.6225828783 1.0247911197 0.7276232095
H -8.5129604033 1.3667402317 -1.0200001039
H -9.1520087006 2.5971327549 0.1005988089
H -7.9064395751 4.2856105976 0.2885612721
H -6.4107434258 4.1953460047 -0.6781613077
H -6.3376875228 4.1340152935 1.1032474242
H 3.3490136235 -2.8970540405 0.1045876915
H -3.3157466592 -2.9090724009 0.0012939778
H 2.1797528657 -4.9866852738 0.0589106030
H -2.1394536613 -4.9936087129 0.0132925118
H 0.0222001909 -6.2714196303 0.0327574465
55
step=69 E=-1132.052678944503 Eh
N 7.0827056719 2.4227773208 0.1198779713
N -7.0842503228 2.3747356347 0.1984847020
N 0.0159906476 -2.4001173801 0.0381669100
C 5.9787032750 1.5957472023 0.0836467904
C -5.9712011452 1.5612639322 0.1481884540
C 3.6917635909 -0.1207855335 0.0419100097
C -3.6709258204 -0.1364122862 0.0816494403
C 4.6755166547 2.1123603858 -0.0764419528
C 6.1052492385 0.1927041007 0.2069636627
C -4.6661437555 2.0890167626 0.2439090941
C -6.0905526680 0.1603074573 -0.0039212319
C 3.5723016980 1.2686538893 -0.0890806987
C 4.9906719644 -0.6309257220 0.1885199273
C -3.5569822860 1.2534882583 0.2129771627
C -4.9699611415 -0.6546461783 -0.0317495498
C 2.4872557336 -0.9599039289 0.0217525027
C -2.4613554491 -0.9683471100 0.0687294303
C 1.1722380527 -3.0672435200 0.0490093765
C -1.1380776323 -3.0709337779 0.0271015249
C 8.4061632435 1.8510441243 0.1707192104
C 6.9263903198 3.8294941293 -0.1578398779
C -8.3947560164 1.8103494082 -0.0126307659
C -6.9202384699 3.8073727978 0.2249708956
C 2.4320640118 -2.2996226896 0.0624770444
C -2.4006480148 -2.3078395003 0.0270286491
C 1.2165192481 -4.4707764452 0.0489101315
C -1.1777648737 -4.4746293658 0.0226800561
C 0.0205168912 -5.1779370434 0.0342409405
H 4.5150705054 3.1852498833 -0.1881307300
H 7.0890587513 -0.2637472912 0.3220694289
H -4.5095540900 3.1634021820 0.3466275837
H -7.0736152439 -0.3013692539 -0.1033936428
H 2.5755916470 1.7053439716 -0.2098757891
H 5.1417915944 -1.7089635062 0.2952237914
H -2.5595791513 1.6974704800 0.2955130236
H -5.1161810760 -1.7318602683 -0.1525950547
H 1.5280027370 -0.4322578034 -0.0331327914
H -1.5040563131 -0.4356074144 0.1053708060
H 8.6473696098 1.2450512657 -0.7238760824
H 8.5348525863 1.2059632084 1.0563270227
H 9.1475750059 2.6572844812 0.2435120769
H 7.9017412371 4.3266108591 -0.0778142661
H 6.2482402369 4.3142496361 0.5653568497
H 6.5269383721 4.0215320989 -1.1721190082
H -8.6224903882 1.0245932604 0.7278693350
H -8.5128859869 1.3665232803 -1.0197584693
H -9.1518905874 2.5969410766 0.1008356423
H -7.9062875438 4.2853876081 0.2888215449
H -6.4105803862 4.1951245887 -0.6778822670
H -6.3375488575 4.1337339862 1.1035252206
H 3.3490562995 -2.8973213282 0.1047147218
H -3.3157079797 -2.9093923635 0.0014677960
H 2.1798123345 -4.9869764392 0.0590109660
H -2.1393958773 -4.9939371637 0.0134152242
H 0.0222700289 -6.2717281394 0.0328426850
55
step=70 E=-1132.052679259097 Eh
N 7.0827010140 2.4221190843 0.1205980500
N -7.0841860580 2.3737647151 0.1991913447
N 0.0161129747 -2.4009528520 0.0387245668
C 5.9787083214 1.5950869310 0.0843662741
C -5.9711283278 1.5603088510 0.1488861466
C 3.6918068507 -0.1214987656 0.0426024265
C -3.6708392768 -0.1373425564 0.0822969634
C 4.6755151058 2.1116706647 -0.0757628848
C 6.1052762665 0.1920494583 0.2077262047
C -4.6660761657 2.0880735390 0.2446208060
C -6.0904649036 0.1593516404 -0.0032530941
C 3.5723193590 1.2679387152 -0.0884142722
C 4.9907204217 -0.6316086010 0.1892689943
C -3.5569105809 1.2525538502 0.2136609453
C -4.9698649294 -0.6555913911 -0.0311080371
C 2.4873196531 -0.9606455595 0.0224102101
C -2.4612593855 -0.9692560661 0.0693400174
C 1.1723804679 -3.0680334203 0.0495017649
C -1.1379325830 -3.0718033773 0.0276351764
C 8.4061471840 1.8503794510 0.1715953161
C 6.9263880512 3.8288621041 -0.1569752290
C -8.3946959458 1.8093479363 -0.0118154347
C -6.9202028232 3.8064013379 0.2258413585
C 2.4321786597 -2.3003699916 0.0629979093
C -2.4005286467 -2.3087458523 0.0276186046
C 1.2167098243 -4.4715628811 0.0493067349
C -1.1775750931 -4.4755034436 0.0231271501
C 0.0207344838 -5.1787690376 0.0346171798
H 4.5150497539 3.1845526797 -0.1874792370
H 7.0890930310 -0.2643764617 0.3228812353
H -4.5094966347 3.1624567238 0.3473663622
H -7.0735257420 -0.3023332627 -0.1027324137
H 2.5756021672 1.7046053038 -0.2092426506
H 5.1418578505 -1.7096394607 0.2960178507
H -2.5595119726 1.6965416933 0.2962044272
H -5.1160718149 -1.7328041057 -0.1519799615
H 1.5280480547 -0.4330244467 -0.0323892788
H -1.5039702404 -0.4365025606 0.1059637700
H 8.6473963469 1.2442822803 -0.7229157013
H 8.5347807563 1.2053958648 1.0572853474
H 9.1475637233 2.6566198319 0.2443296665
H 7.9017390837 4.3259696418 -0.0769019227
H 6.2482340960 4.3135484263 0.5662651711
H 6.5269407685 4.0209993471 -1.1712355667
H -8.6223770207 1.0236171956 0.7287318310
H -8.5128746766 1.3654765903 -1.0189169962
H -9.1518367322 2.5959332547 0.1016541184
H -7.9062633083 4.2843913616 0.2896978662
H -6.4105174147 4.1942550818 -0.6769508281
H -6.3375517250 4.1326845761 1.1044517946
H 3.3491943762 -2.8980385265 0.1051331717
H -3.3155768896 -2.9103214492 0.0020708305
H 2.1800211847 -4.9877285460 0.0593514265
H -2.1391906244 -4.9948456689 0.0138483661
H 0.0225285071 -6.2725610315 0.0331467554
55
step=71 E=-1132.052679363728 Eh
N 7.0825810408 2.4219605464 0.1208310701
N -7.0840545889 2.3735094471 0.1994184799
N 0.0161618845 -2.4013017057 0.0389052471
C 5.9786285104 1.5948756754 0.0846020662
C -5.9710156570 1.5600301445 0.1491098878
C 3.6917925845 -0.1217917743 0.0428301629
C -3.6707588450 -0.1376636677 0.0825046774
C 4.6754181197 2.1114117975 -0.0755405620
C 6.1052508079 0.1918437797 0.2079770957
C -4.6659535544 2.0877690986 0.2448509976
C -6.0903805183 0.1590768959 -0.0030408082
C 3.5722541614 1.2676397514 -0.0881957244
C 4.9907232785 -0.6318534169 0.1895154584
C -3.5568031341 1.2522297255 0.2138823756
C -4.9697955042 -0.6558862498 -0.0309041202
C 2.4873347779 -0.9609795519 0.0226267320
C -2.4611932097 -0.9695981939 0.0695359698
C 1.1724309016 -3.0683814951 0.0496627923
C -1.1378832663 -3.0721516936 0.0278061326
C 8.4060629561 1.8503086156 0.1718782941
C 6.9261859019 3.8287018272 -0.1567011492
C -8.3945824138 1.8091229524 -0.0115540905
C -6.9200402811 3.8061411603 0.2261233976
C 2.4322228337 -2.3007067540 0.0631702107
C -2.4004761431 -2.3090888987 0.0278066272
C 1.2167631882 -4.4719113853 0.0494363357
C -1.1775243147 -4.4758508599 0.0232693887
C 0.0207862063 -5.1791155702 0.0347380368
H 4.5149151740 3.1842876605 -0.1872664316
H 7.0890829882 -0.2645443301 0.3231482584
H -4.5093543423 3.1621487548 0.3476068937
H -7.0734499372 -0.3025877897 -0.1025237847
H 2.5755219286 1.7042684877 -0.2090350684
H 5.1418969524 -1.7098778129 0.2962793784
H -2.5593959702 1.6961980428 0.2964299751
H -5.1160225390 -1.7330952285 -0.1517861201
H 1.5280478994 -0.4333838678 -0.0321458593
H -1.5038960522 -0.4368579860 0.1061557495
H 8.6473657580 1.2441914358 -0.7226040029
H 8.5347239616 1.2053681429 1.0575965367
H 9.1474263363 2.6565998949 0.2445900267
H 7.9015080173 4.3258641449 -0.0766160339
H 6.2480030349 4.3133288993 0.5665527357
H 6.5267270996 4.0208434075 -1.1709559421
H -8.6222698020 1.0234063274 0.7290066815
H -8.5127902991 1.3652425900 -1.0186476362
H -9.1517013041 2.5957288252 0.1019179551
H -7.9060910466 4.2841507858 0.2899822380
H -6.4103348567 4.1940149428 -0.6766485457
H -6.3373925801 4.1323816356 1.1047526501
H 3.3492484521 -2.8983625950 0.1052734724
H -3.3155284914 -2.9106575385 0.0022614669
H 2.1800747483 -4.9880773507 0.0594641153
H -2.1391389051 -4.9951937521 0.0139844805
H 0.0225799105 -6.2729074288 0.0332438123
55
step=72 E=-1132.052679449796 Eh
N 7.0824845230 2.4218450402 0.1210069166
N -7.0839450659 2.3733187684 0.1995910812
N 0.0161920942 -2.4015709573 0.0390439583
C 5.9785580524 1.5947259938 0.0847800628
C -5.9709240995 1.5598168189 0.1492804853
C 3.6917711449 -0.1220040082 0.0430036144
C -3.6706994018 -0.1379194424 0.0826641246
C 4.6753339615 2.1112250333 -0.0753733342
C 6.1052202211 0.1916986728 0.2081679617
C -4.6658522578 2.0875303644 0.2450288004
C -6.0903166544 0.1588674339 -0.0028805664
C 3.5721937402 1.2674227642 -0.0880305090
C 4.9907148719 -0.6320285793 0.1897036687
C -3.5567170349 1.2519710883 0.2140539388
C -4.9697468136 -0.6561161005 -0.0307497018
C 2.4873361943 -0.9612235635 0.0227920769
C -2.4611478682 -0.9698749433 0.0696868726
C 1.1724669054 -3.0686429348 0.0497858401
C -1.1378484624 -3.0724286019 0.0279367371
C 8.4059856835 1.8502416740 0.1720932347
C 6.9260412364 3.8285869612 -0.1564941619
C -8.3944878870 1.8089596830 -0.0113580727
C -6.9199018107 3.8059461733 0.2263396913
C 2.4322501485 -2.3009530907 0.0633018560
C -2.4004413091 -2.3093663548 0.0279503067
C 1.2168091682 -4.4721728193 0.0495342498
C -1.1774803527 -4.4761271379 0.0233768554
C 0.0208354474 -5.1793830346 0.0348286526
H 4.5148020932 3.1840962152 -0.1871076422
H 7.0890639048 -0.2646605709 0.3233519375
H -4.5092333507 3.1619066640 0.3477939807
H -7.0733943927 -0.3027771386 -0.1023680627
H 2.5754501362 1.7040227055 -0.2088787469
H 5.1419163551 -1.7100479603 0.2964800711
H -2.5593013894 1.6959200448 0.2966063718
H -5.1159938927 -1.7333214786 -0.1516407811
H 1.5280367071 -0.4336487497 -0.0319601633
H -1.5038434253 -0.4371466731 0.1063049931
H 8.6473214638 1.2441055670 -0.7223667538
H 8.5346578461 1.2053325965 1.0578333060
H 9.1473197256 2.6565613861 0.2447879435
H 7.9013464009 4.3257810616 -0.0763994519
H 6.2478408464 4.3131759171 0.5667696595
H 6.5265762022 4.0207360560 -1.1707450525
H -8.6221836387 1.0232538288 0.7292117993
H -8.5127177960 1.3650738484 -1.0184460649
H -9.1515878007 2.5955834251 0.1021154773
H -7.9059434869 4.2839743378 0.2901993821
H -6.4101783252 4.1938344785 -0.6764156255
H -6.3372567954 4.1321509161 1.1049845677
H 3.3492857045 -2.8985956372 0.1053802523
H -3.3154956330 -2.9109311660 0.0024059961
H 2.1801239491 -4.9883331705 0.0595485301
H -2.1390907961 -4.9954764331 0.0140866507
H 0.0226361037 -6.2731746434 0.0333152321
55
step=73 E=-1132.052679642131 Eh
N 7.0824129117 2.4214399264 0.1214797507
N -7.0838516467 2.3727111030 0.2000537915
N 0.0162959772 -2.4021631954 0.0394101150
C 5.9785273008 1.5942714599 0.0852559054
C -5.9708292188 1.5592142265 0.1497372343
C 3.6918063407 -0.1225397258 0.0434619004
C -3.6706008965 -0.1385141597 0.0830882085
C 4.6752888032 2.1107249102 -0.0749224066
C 6.1052410504 0.1912502196 0.2086709320
C -4.6657585464 2.0869297675 0.2454964863
C -6.0902181248 0.1582658081 -0.0024449184
C 3.5721808810 1.2668820180 -0.0875878515
C 4.9907646384 -0.6325172867 0.1901975971
C -3.5566220525 1.2513738219 0.2145036080
C -4.9696454595 -0.6567138808 -0.0303312702
C 2.4874002561 -0.9617990575 0.0232275124
C -2.4610467657 -0.9704623879 0.0700869706
C 1.1725702810 -3.0692330797 0.0501105451
C -1.1377453792 -3.0730165516 0.0282854002
C 8.4059482030 1.8499270070 0.1726651659
C 6.9258866838 3.8281884280 -0.1559312624
C -8.3944012404 1.8083426327 -0.0108256908
C -6.9198181803 3.8053369979 0.2269113357
C 2.4323466631 -2.3015324628 0.0636473101
C -2.4003395757 -2.3099533292 0.0283352999
C 1.2169153054 -4.4727624263 0.0497957488
C -1.1773759627 -4.4767156985 0.0236679935
C 0.0209410829 -5.1799720741 0.0350747624
H 4.5147216501 3.1835885501 -0.1866733924
H 7.0890994694 -0.2650705335 0.3238857870
H -4.5091429484 3.1613043098 0.3482808403
H -7.0732957377 -0.3033799835 -0.1019382945
H 2.5754229671 1.7034441516 -0.2084564893
H 5.1419996182 -1.7105292029 0.2970021488
H -2.5592076552 1.6953232569 0.2970625807
H -5.1158882428 -1.7339177580 -0.1512409991
H 1.5280843482 -0.4342489336 -0.0314687902
H -1.5037437513 -0.4377326674 0.1066953665
H 8.6473528101 1.2437379312 -0.7217390655
H 8.5346335588 1.2050930599 1.0584599735
H 9.1472276005 2.6563004954 0.2453172179
H 7.9011625587 4.3254351316 -0.0758105123
H 6.2476570747 4.3126941151 0.5673618403
H 6.5264096866 4.0203747999 -1.1701693778
H -8.6220685825 1.0226543826 0.7297736735
H -8.5126658279 1.3644296133 -1.0178970706
H -9.1514991271 2.5949679347 0.1026505138
H -7.9058644301 4.2833549694 0.2907745551
H -6.4100735921 4.1932898690 -0.6758032931
H -6.3371970581 4.1314861346 1.1055937868
H 3.3493933845 -2.8991621289 0.1056596566
H -3.3153947271 -2.9115184656 0.0027979742
H 2.1802302848 -4.9889228329 0.0597744843
H -2.1389867925 -4.9960659760 0.0143671559
H 0.0227416121 -6.2737639965 0.0335136197
55
step=74 E=-1132.052679743510 Eh
N 7.0823116661 2.4213076621 0.1216787284
N -7.0837341145 2.3724899646 0.2002494047
N 0.0163278821 -2.4024626674 0.0395666563
C 5.9784488638 1.5941099876 0.0854561816
C -5.9707309911 1.5589687898 0.1499303919
C 3.6917795209 -0.1227702963 0.0436569503
C -3.6705376943 -0.1388058198 0.0832682190
C 4.6751946494 2.1105219964 -0.0747333869
C 6.1052037197 0.1910936997 0.2088846360
C -4.6656496863 2.0866568390 0.2456965440
C -6.0901498707 0.1580244055 -0.0022624984
C 3.5721121843 1.2666464911 -0.0874012678
C 4.9907520047 -0.6327072123 0.1904084762
C -3.5565299448 1.2510790460 0.2146963578
C -4.9695937887 -0.6569776063 -0.0301557304
C 2.4873984166 -0.9620641678 0.0234135664
C -2.4609988269 -0.9707765524 0.0702571007
C 1.1726102649 -3.0695198579 0.0502497558
C -1.1377062841 -3.0733273868 0.0284334213
C 8.4058587589 1.8498270733 0.1729074139
C 6.9257497447 3.8280596754 -0.1556940348
C -8.3942999658 1.8081503575 -0.0106024983
C -6.9196698210 3.8051112198 0.2271552371
C 2.4323756167 -2.3018001806 0.0637957338
C -2.4003024120 -2.3102680524 0.0284979504
C 1.2169699241 -4.4730489736 0.0499075413
C -1.1773234287 -4.4770261059 0.0237908509
C 0.0210015708 -5.1802693178 0.0351789526
H 4.5145955068 3.1833802744 -0.1864931807
H 7.0890746625 -0.2651959755 0.3241132666
H -4.5090125713 3.1610277108 0.3484905974
H -7.0732366558 -0.3035996056 -0.1017600067
H 2.5753419877 1.7031776572 -0.2082792850
H 5.1420175423 -1.7107137396 0.2972264633
H -2.5591063185 1.6950073802 0.2972598229
H -5.1158583856 -1.7341776337 -0.1510749232
H 1.5280682082 -0.4345377177 -0.0312596066
H -1.5036881058 -0.4380596033 0.1068628628
H 8.6472903655 1.2436141340 -0.7214726951
H 8.5345456933 1.2050247009 1.0587257041
H 9.1471187006 2.6562198524 0.2455417418
H 7.9010130235 4.3253291805 -0.0755614029
H 6.2475068961 4.3125298664 0.5676112392
H 6.5262682727 4.0202620954 -1.1699272523
H -8.6219752622 1.0224744509 0.7300078493
H -8.5125892862 1.3642302367 -1.0176672528
H -9.1513775157 2.5947948243 0.1028752085
H -7.9057063831 4.2831489060 0.2910196046
H -6.4099058229 4.1930804592 -0.6755411534
H -6.3370516942 4.1312213900 1.1058547685
H 3.3494343921 -2.8994135071 0.1057802440
H -3.3153588744 -2.9118304978 0.0029622476
H 2.1802899766 -4.9892004094 0.0598713551
H -2.1389284518 -4.9963861486 0.0144845360
H 0.0228131109 -6.2740611199 0.0335969422
55
step=75 E=-1132.052679912843 Eh
N 7.0822216045 2.4209974847 0.1220599298
N -7.0836230502 2.3720107920 0.2006250006
N 0.0164044928 -2.4029651158 0.0398668876
C 5.9783913844 1.5937609686 0.0858407034
C -5.9706272376 1.5584825928 0.1503021446
C 3.6917854654 -0.1232011766 0.0440307844
C -3.6704476209 -0.1393089749 0.0836153346
C 4.6751203797 2.1101248047 -0.0743687407
C 6.1051964804 0.1907516386 0.2092929044
C -4.6655415621 2.0861584332 0.2460820137
C -6.0900576520 0.1575412124 -0.0019115860
C 3.5720682602 1.2662104695 -0.0870416919
C 4.9907745169 -0.6330893079 0.1908110518
C -3.5564284884 1.2505726146 0.2150680163
C -4.9695075725 -0.6574685123 -0.0298177199
C 2.4874337099 -0.9625362415 0.0237699537
C -2.4609150508 -0.9712870773 0.0705854593
C 1.1726913305 -3.0700111949 0.0505157485
C -1.1376246755 -3.0738344744 0.0287176045
C 8.4057874693 1.8495708951 0.1733692571
C 6.9256047262 3.8277569085 -0.1552392887
C -8.3941978263 1.8076744634 -0.0101759033
C -6.9195541621 3.8046294557 0.2276235552
C 2.4324469401 -2.3022758781 0.0640791505
C -2.4002238871 -2.3107784808 0.0288113375
C 1.2170621129 -4.4735395280 0.0501202045
C -1.1772331529 -4.4775339227 0.0240259998
C 0.0210983281 -5.1807683248 0.0353772993
H 4.5144845598 3.1829761684 -0.1861435510
H 7.0890816917 -0.2654994632 0.3245464915
H -4.5088965318 3.1605265701 0.3488948246
H -7.0731481636 -0.3040731151 -0.1014175612
H 2.5752834180 1.7027043754 -0.2079363608
H 5.1420749380 -1.7110889023 0.2976530590
H -2.5590016154 1.6944912466 0.2976404704
H -5.1157797625 -1.7346657051 -0.1507551944
H 1.5280858823 -0.4350367877 -0.0308579601
H -1.5036012856 -0.4385762563 0.1071864353
H 8.6472659487 1.2433111204 -0.7209650155
H 8.5344752659 1.2048280710 1.0592319774
H 9.1470149376 2.6559961579 0.2459686595
H 7.9008486864 4.3250606114 -0.0750855557
H 6.2473425309 4.3121656227 0.5680901199
H 6.5261149894 4.0199938584 -1.1694621818
H -8.6218584224 1.0220131219 0.7304557142
H -8.5125154125 1.3637355724 -1.0172283427
H -9.1512679205 2.5943257459 0.1033032574
H -7.9055904867 4.2826673247 0.2914888822
H -6.4097666721 4.1926493143 -0.6750371836
H -6.3369553482 4.1306871288 1.1063564526
H 3.3495185065 -2.8998727199 0.1060094961
H -3.3152812311 -2.9123405419 0.0032786824
H 2.1803857633 -4.9896845050 0.0600546669
H -2.1388350085 -4.9969012492 0.0147093888
H 0.0229178937 -6.2745605581 0.0337547038
55
step=76 E=-1132.052680039721 Eh
N 7.0821309630 2.4207946549 0.1223282377
N -7.0835093870 2.3716915115 0.2008888420
N 0.0164467037 -2.4033386784 0.0400767695
C 5.9783244319 1.5935286342 0.0861105526
C -5.9705308291 1.5581423450 0.1505626038
C 3.6917685908 -0.1234979215 0.0442922284
C -3.6703823786 -0.1396887300 0.0838577144
C 4.6750399084 2.1098549345 -0.0741141131
C 6.1051680217 0.1905240511 0.2095800960
C -4.6654363606 2.0857948342 0.2463506531
C -6.0899869857 0.1572045730 -0.0016646098
C 3.5720124297 1.2659091168 -0.0867908971
C 4.9907696154 -0.6333487274 0.1910937939
C -3.5563384757 1.2501896618 0.2153265713
C -4.9694515606 -0.6578249674 -0.0295803099
C 2.4874404069 -0.9628647199 0.0240187267
C -2.4608623195 -0.9716845206 0.0708143975
C 1.1727444577 -3.0703669974 0.0507018506
C -1.1375730428 -3.0742239373 0.0289167322
C 8.4057103367 1.8494059431 0.1736956345
C 6.9254745128 3.8275594869 -0.1549197528
C -8.3941000842 1.8073793918 -0.0098739312
C -6.9194145165 3.8043056849 0.2279512434
C 2.4324860095 -2.3026074554 0.0642771388
C -2.4001769776 -2.3111760919 0.0290306900
C 1.2171350516 -4.4738947067 0.0502695586
C -1.1771620801 -4.4779232806 0.0241915208
C 0.0211803665 -5.1811393896 0.0355171405
H 4.5143748992 3.1827011002 -0.1859000908
H 7.0890647410 -0.2656972403 0.3248522137
H -4.5087727667 3.1601593575 0.3491757154
H -7.0730856558 -0.3043904419 -0.1011752502
H 2.5752163268 1.7023734177 -0.2076981026
H 5.1420974142 -1.7113430043 0.2979532578
H -2.5589034424 1.6940895104 0.2979041493
H -5.1157420379 -1.7350184989 -0.1505297129
H 1.5280783299 -0.4353879862 -0.0305780034
H -1.5035428732 -0.4389828700 0.1074110946
H 8.6472224942 1.2431130176 -0.7206062444
H 8.5343977231 1.2047050820 1.0595900286
H 9.1469150140 2.6558541120 0.2462710591
H 7.9007045200 4.3248879898 -0.0747503035
H 6.2471975435 4.3119244928 0.5684260626
H 6.5259797321 4.0198201186 -1.1691359416
H -8.6217624762 1.0217326282 0.7307732596
H -8.5124465891 1.3634288033 -1.0169171467
H -9.1511514704 2.5940482135 0.1036069804
H -7.9054429181 4.2823594709 0.2918182314
H -6.4096055711 4.1923523678 -0.6746854112
H -6.3368228772 4.1303178803 1.1067065310
H 3.3495714098 -2.9001859758 0.1061698804
H -3.3152336477 -2.9127387216 0.0035008575
H 2.1804658531 -4.9900268006 0.0601835658
H -2.1387558773 -4.9973044937 0.0148681152
H 0.0230157905 -6.2749313908 0.0338666215
55
step=77 E=-1132.052680213303 Eh
N 7.0820523832 2.4204714204 0.1227213203
N -7.0834015759 2.3711968529 0.2012747338
N 0.0165167542 -2.4038497040 0.0403819205
C 5.9782726018 1.5931723775 0.0865050802
C -5.9704339230 1.5576363352 0.1509431471
C 3.6917726274 -0.1239264855 0.0446727266
C -3.6703034437 -0.1402164817 0.0842106086
C 4.6749734416 2.1094568618 -0.0737389925
C 6.1051587006 0.1901727276 0.2099960883
C -4.6653344819 2.0852747660 0.2467407172
C -6.0899053646 0.1567016663 -0.0013021478
C 3.5719738702 1.2654755827 -0.0864225198
C 4.9907861839 -0.6337354032 0.1915027040
C -3.5562452917 1.2496591783 0.2157014338
C -4.9693780586 -0.6583386701 -0.0292323684
C 2.4874710106 -0.9633287099 0.0243806446
C -2.4607896993 -0.9722203819 0.0711471949
C 1.1728254213 -3.0708610534 0.0509736682
C -1.1374946631 -3.0747494694 0.0292074169
C 8.4056488372 1.8491308287 0.1741694888
C 6.9253480297 3.8272456048 -0.1544482917
C -8.3940061659 1.8068971621 -0.0094305175
C -6.9192937905 3.8038072217 0.2284282795
C 2.4325520587 -2.3030757437 0.0645656752
C -2.4001044688 -2.3117115722 0.0293506584
C 1.2172356703 -4.4743883270 0.0504902577
C -1.1770633934 -4.4784483621 0.0244355028
C 0.0212892723 -5.1816473227 0.0357250520
H 4.5142762518 3.1822968643 -0.1855381480
H 7.0890682965 -0.2660155089 0.3252928984
H -4.5086605398 3.1596361832 0.3495822637
H -7.0730090024 -0.3048813235 -0.1008178368
H 2.5751654831 1.7019068912 -0.2073457483
H 5.1421437266 -1.7117233841 0.2983847656
H -2.5588052753 1.6935475485 0.2982847764
H -5.1156783057 -1.7355291991 -0.1501977290
H 1.5280928153 -0.4358765260 -0.0301702081
H -1.5034677140 -0.4395222031 0.1077364027
H 8.6472051277 1.2427908201 -0.7200875411
H 8.5343340230 1.2044878474 1.0601081118
H 9.1468248043 2.6556083567 0.2467108296
H 7.9005615283 4.3246028075 -0.0742564903
H 6.2470544293 4.3115501189 0.5689236784
H 6.5258455655 4.0195458168 -1.1686534147
H -8.6216571439 1.0212684346 0.7312405117
H -8.5123880545 1.3629263149 -1.0164598047
H -9.1510438063 2.5935786800 0.1040527136
H -7.9053189155 4.2818671017 0.2922980371
H -6.4094612864 4.1919005054 -0.6741742032
H -6.3367174651 4.1297644713 1.1072151061
H 3.3496528265 -2.9006351172 0.1064045593
H -3.3151588226 -2.9132772667 0.0038262526
H 2.1805734718 -4.9905084593 0.0603757162
H -2.1386490155 -4.9978431378 0.0151031864
H 0.0231395179 -6.2754389810 0.0340358917
55
step=78 E=-1132.052680313821 Eh
N 7.0819495555 2.4203342260 0.1229224341
N -7.0832843235 2.3709708965 0.2014730973
N 0.0165526807 -2.4041528520 0.0405415664
C 5.9781952001 1.5930027572 0.0867084399
C -5.9703341022 1.5573878263 0.1511395882
C 3.6917478966 -0.1241653427 0.0448714996
C -3.6702375176 -0.1405092049 0.0843943220
C 4.6748810484 2.1092466014 -0.0735470761
C 6.1051233484 0.1900082566 0.2102136289
C -4.6652243676 2.0849996724 0.2469454578
C -6.0898337242 0.1564568183 -0.0011174711
C 3.5719071549 1.2652321708 -0.0862326919
C 4.9907758179 -0.6339336434 0.1917176816
C -3.5561516972 1.2493627970 0.2158989581
C -4.9693222855 -0.6586051809 -0.0290543784
C 2.4874711828 -0.9636024573 0.0245704204
C -2.4607384843 -0.9725338687 0.0713211334
C 1.1728670462 -3.0711538425 0.0511152733
C -1.1374533082 -3.0750610671 0.0293579447
C 8.4055619020 1.8490356863 0.1744148998
C 6.9252019825 3.8271109257 -0.1542089050
C -8.3939042383 1.8066976554 -0.0092051970
C -6.9191487070 3.8035770566 0.2286772024
C 2.4325834016 -2.3033517115 0.0647168325
C -2.4000646506 -2.3120254766 0.0295162680
C 1.2172893491 -4.4746804997 0.0506032025
C -1.1770114353 -4.4787601223 0.0245595828
C 0.0213480370 -5.1819484869 0.0358298072
H 4.5141521678 3.1820812498 -0.1853554197
H 7.0890455718 -0.2661484129 0.3255245627
H -4.5085295298 3.1593573512 0.3497976224
H -7.0729462575 -0.3051053448 -0.1006383378
H 2.5750863852 1.7016323143 -0.2071654933
H 5.1421640071 -1.7119161793 0.2986137285
H -2.5587029734 1.6932305237 0.2984877748
H -5.1156429168 -1.7357919564 -0.1500300662
H 1.5280785506 -0.4361741355 -0.0299566784
H -1.5034092548 -0.4398482719 0.1079084147
H 8.6471496478 1.2426717261 -0.7198167782
H 8.5342533037 1.2044271583 1.0603782163
H 9.1467125181 2.6555380530 0.2469368385
H 7.9004003060 4.3244959858 -0.0740059159
H 6.2468931517 4.3113762815 0.5691756453
H 6.5256933202 4.0194250382 -1.1684088468
H -8.6215620719 1.0210809128 0.7314768022
H -8.5123096658 1.3627193457 -1.0162279814
H -9.1509230347 2.5933969979 0.1042791251
H -7.9051652235 4.2816545572 0.2925473178
H -6.4092962062 4.1916891039 -0.6739057423
H -6.3365774160 4.1294952254 1.1074824083
H 3.3496956744 -2.9008953100 0.1065269711
H -3.3151211179 -2.9135879108 0.0039929013
H 2.1806312209 -4.9907930823 0.0604731648
H -2.1385926523 -4.9981629341 0.0152212742
H 0.0232074568 -6.2757401136 0.0341187453
55
step=79 E=-1132.052680505618 Eh
N 7.0820427716 2.4198414153 0.1234058262
N -7.0833428050 2.3702636116 0.2019509058
N 0.0166409868 -2.4046598992 0.0409218283
C 5.9782818848 1.5925231885 0.0871940849
C -5.9703644996 1.5567223845 0.1516134844
C 3.6918277765 -0.1246336204 0.0453415331
C -3.6702130196 -0.1410975777 0.0848378408
C 4.6749722080 2.1087727573 -0.0730847422
C 6.1052000768 0.1895300394 0.2107263139
C -4.6652718100 2.0843751144 0.2474355978
C -6.0898178243 0.1557898276 -0.0006681872
C 3.5719947207 1.2647635385 -0.0857776392
C 4.9908493589 -0.6344068563 0.1922222040
C -3.5561718924 1.2487753270 0.2163720105
C -4.9692798506 -0.6592346745 -0.0286211686
C 2.4875492670 -0.9640653423 0.0250177502
C -2.4606873874 -0.9730806319 0.0717409271
C 1.1729683680 -3.0716388462 0.0514495783
C -1.1373555122 -3.0755843869 0.0297200983
C 8.4056435958 1.8485278686 0.1749986123
C 6.9253104105 3.8266381202 -0.1536279481
C -8.3939465660 1.8059302776 -0.0086625083
C -6.9192695648 3.8028744605 0.2292706843
C 2.4326735772 -2.3038178218 0.0650707183
C -2.3999811241 -2.3125705351 0.0299176414
C 1.2174121728 -4.4751642273 0.0508695002
C -1.1768880027 -4.4792840367 0.0248594956
C 0.0214834513 -5.1824527250 0.0360803817
H 4.5142510118 3.1816068003 -0.1849097538
H 7.0891178583 -0.2666287735 0.3260675069
H -4.5086127564 3.1587360430 0.3503102279
H -7.0729153029 -0.3058022221 -0.1001987225
H 2.5751777399 1.7011669141 -0.2067299942
H 5.1422272137 -1.7123883398 0.2991462895
H -2.5587376821 1.6926734566 0.2989711854
H -5.1155632922 -1.7364242849 -0.1496186850
H 1.5281537583 -0.4366363605 -0.0294504995
H -1.5033730634 -0.4403679903 0.1083210095
H 8.6472521101 1.2420915414 -0.7191769871
H 8.5342953991 1.2039842252 1.0610168757
H 9.1468041608 2.6550245176 0.2474781984
H 7.9005145801 4.3240068906 -0.0733970655
H 6.2470067859 4.3108641973 0.5697891024
H 6.5258024471 4.0190232047 -1.1678140227
H -8.6215478747 1.0203222217 0.7320476682
H -8.5123656271 1.3619205830 -1.0156689278
H -9.1509944155 2.5926014274 0.1048217839
H -7.9053085535 4.2809053456 0.2931408558
H -6.4094053252 4.1910737304 -0.6732673081
H -6.3367387650 4.1287550925 1.1081179318
H 3.3497945821 -2.9013529850 0.1068103961
H -3.3150255969 -2.9141518345 0.0043994713
H 2.1807624189 -4.9912615870 0.0607001150
H -2.1384601395 -4.9987038097 0.0155099287
H 0.0233617504 -6.2762442910 0.0343176134
55
step=80 E=-1132.052680714241 Eh
N 7.0819567843 2.4194341984 0.1238914083
N -7.0832207594 2.3696451252 0.2024290262
N 0.0167265407 -2.4052844691 0.0413007036
C 5.9782301027 1.5920742507 0.0876824059
C -5.9702550227 1.5560912950 0.1520854843
C 3.6918398545 -0.1251614867 0.0458129967
C -3.6701223668 -0.1417499552 0.0852770771
C 4.6749060776 2.1082795923 -0.0726227921
C 6.1051958863 0.1890867593 0.2112439762
C -4.6651586373 2.0837315069 0.2479221852
C -6.0897228762 0.1551618301 -0.0002203256
C 3.5719606272 1.2642299538 -0.0853233015
C 4.9908738769 -0.6348893390 0.1927308943
C -3.5560687912 1.2481199016 0.2168402306
C -4.9691932742 -0.6598739962 -0.0281906504
C 2.4875906382 -0.9646316149 0.0254659137
C -2.4606021393 -0.9737391296 0.0721559093
C 1.1730682786 -3.0722418454 0.0517850817
C -1.1372588665 -3.0762291178 0.0300799746
C 8.4055824712 1.8481890178 0.1755872657
C 6.9251587856 3.8262404414 -0.1530501286
C -8.3938421080 1.8053285788 -0.0081152611
C -6.9191311032 3.8022509387 0.2298633857
C 2.4327550698 -2.3043890745 0.0654273794
C -2.3998924086 -2.3132286133 0.0303147969
C 1.2175377560 -4.4757666524 0.0511386253
C -1.1767647749 -4.4799284464 0.0251585382
C 0.0216202879 -5.1830742023 0.0363326157
H 4.5141504231 3.1811063316 -0.1844660515
H 7.0891279350 -0.2670349897 0.3266178602
H -4.5084898052 3.1580884830 0.3508187552
H -7.0728257605 -0.3064179708 -0.0997591414
H 2.5751302448 1.7005961673 -0.2062973157
H 5.1422836525 -1.7128632611 0.2996847584
H -2.5586296232 1.6920059613 0.2994484823
H -5.1154857365 -1.7370598638 -0.1492094370
H 1.5281775014 -0.4372296954 -0.0289461960
H -1.5032863856 -0.4410281015 0.1087284547
H 8.6472507290 1.2416929703 -0.7185305203
H 8.5342349527 1.2037207863 1.0616627589
H 9.1467020060 2.6547272210 0.2480227281
H 7.9003400456 4.3236495235 -0.0727925437
H 6.2468317676 4.3103905485 0.5703972151
H 6.5256411348 4.0186692155 -1.1672232770
H -8.6214308555 1.0197421220 0.7326235702
H -8.5123045478 1.3612949214 -1.0151051523
H -9.1508722665 2.5920161357 0.1053720014
H -7.9051659000 4.2802895534 0.2937361818
H -6.4092364060 4.1905087015 -0.6726310270
H -6.3366203520 4.1280621471 1.1087507369
H 3.3498943230 -2.9019020886 0.1070994146
H -3.3149330718 -2.9148153920 0.0048016411
H 2.1808972760 -4.9918480838 0.0609320900
H -2.1383263000 -4.9993662933 0.0157969158
H 0.0235183948 -6.2768652607 0.0345193463
55
step=81 E=-1132.052680835720 Eh
N 7.0818436733 2.4192524321 0.1241458827
N -7.0830940294 2.3693480020 0.2026804499
N 0.0167791808 -2.4056531376 0.0415019672
C 5.9781459470 1.5918567726 0.0879388647
C -5.9701427607 1.5557760649 0.1523343188
C 3.6918176912 -0.1254623302 0.0460629235
C -3.6700393989 -0.1421038142 0.0855094045
C 4.6748038062 2.1080129281 -0.0723789607
C 6.1051617865 0.1888756437 0.2115160043
C -4.6650365983 2.0833914785 0.2481805094
C -6.0896357534 0.1548503388 0.0000142150
C 3.5718883690 1.2639243739 -0.0850826596
C 4.9908697645 -0.6351406392 0.1929994066
C -3.5559606733 1.2477620837 0.2170893746
C -4.9691195693 -0.6602035132 -0.0279646757
C 2.4875984670 -0.9649758268 0.0257046524
C -2.4605329295 -0.9741119251 0.0723756902
C 1.1731232139 -3.0726033557 0.0519637755
C -1.1372024297 -3.0766017230 0.0302700910
C 8.4054845113 1.8480492569 0.1758948751
C 6.9250002252 3.8260629074 -0.1527455912
C -8.3937275134 1.8050482531 -0.0078306088
C -6.9189849522 3.8019503726 0.2301770296
C 2.4328000183 -2.3047360017 0.0656180085
C -2.3998366254 -2.3136016375 0.0305240222
C 1.2176018460 -4.4761273539 0.0512816548
C -1.1767022152 -4.4803016263 0.0253157537
C 0.0216877192 -5.1834409597 0.0364656142
H 4.5140103055 3.1808331456 -0.1842320018
H 7.0891088414 -0.2672084684 0.3269061550
H -4.5083493480 3.1577449054 0.3510899981
H -7.0727464270 -0.3067109579 -0.0995304726
H 2.5750430200 1.7002539073 -0.2060673973
H 5.1423167115 -1.7131079662 0.2999690898
H -2.5585140096 1.6916296620 0.2997038904
H -5.1154298209 -1.7373857487 -0.1489959724
H 1.5281675190 -0.4376027438 -0.0286776112
H -1.5032100505 -0.4414139265 0.1089455774
H 8.6471862485 1.2415235286 -0.7181927438
H 8.5341404405 1.2036208848 1.0619996755
H 9.1465789331 2.6546122938 0.2483072332
H 7.9001657012 4.3235004935 -0.0724739967
H 6.2466576875 4.3101674720 0.5707185150
H 6.5254754547 4.0185129252 -1.1669115897
H -8.6213156169 1.0194740618 0.7329221800
H -8.5122130813 1.3610034784 -1.0148122928
H -9.1507439912 2.5917487676 0.1056571904
H -7.9050142037 4.2800004069 0.2940499459
H -6.4090695745 4.1902362599 -0.6722932949
H -6.3364838331 4.1277198623 1.1090871176
H 3.3499516267 -2.9022318750 0.1072543402
H -3.3148806231 -2.9151839553 0.0050122641
H 2.1809641209 -4.9922035383 0.0610558150
H -2.1382614202 -4.9997447064 0.0159467999
H 0.0235917978 -6.2772322456 0.0346251246
55
step=82 E=-1132.052681131655 Eh
N 7.0818337740 2.4185873078 0.1248705266
N -7.0830228485 2.3683699707 0.2033960932
N 0.0168978453 -2.4065110258 0.0420622243
C 5.9781596789 1.5911662214 0.0886653326
C -5.9700721981 1.5548019345 0.1530381285
C 3.6918718537 -0.1261991551 0.0467600944
C -3.6699574551 -0.1430542651 0.0861606913
C 4.6748122307 2.1072963411 -0.0716924206
C 6.1052031057 0.1881909490 0.2122846590
C -4.6649714707 2.0824281227 0.2489012689
C -6.0895564661 0.1538786658 0.0006845119
C 3.5719156170 1.2631840792 -0.0844099546
C 4.9909288958 -0.6358483901 0.1937528308
C -3.5558896952 1.2468086028 0.2177812111
C -4.9690328504 -0.6611636377 -0.0273218792
C 2.4876726084 -0.9657395148 0.0263660561
C -2.4604418016 -0.9750463333 0.0729893977
C 1.1732663839 -3.0734170187 0.0524616974
C -1.1370605009 -3.0774977797 0.0308039862
C 8.4054928715 1.8474434610 0.1767728615
C 6.9249410430 3.8254176976 -0.1518828709
C -8.3936736411 1.8040720025 -0.0070069162
C -6.9189174853 3.8009689853 0.2310599156
C 2.4329160177 -2.3055057222 0.0661464028
C -2.3997177276 -2.3145343463 0.0311128732
C 1.2177934437 -4.4769388809 0.0516846985
C -1.1765119450 -4.4811994230 0.0257626763
C 0.0219047388 -5.1842952135 0.0368450232
H 4.5140016654 3.1801109376 -0.1835714532
H 7.0891559226 -0.2678682885 0.3277237593
H -4.5082946627 3.1567805015 0.3518415060
H -7.0726637401 -0.3076873857 -0.0988687377
H 2.5750634694 1.6994903005 -0.2054275955
H 5.1423905474 -1.7138092650 0.3007657785
H -2.5584463566 1.6906813804 0.3004058060
H -5.1153317701 -1.7383441781 -0.1483825718
H 1.5282252217 -0.4383876004 -0.0279351984
H -1.5031270426 -0.4423333275 0.1095458144
H 8.6472643469 1.2408223150 -0.7172290886
H 8.5341283575 1.2031225108 1.0629616501
H 9.1465522451 2.6540441510 0.2491209570
H 7.9000897051 4.3228814835 -0.0715705975
H 6.2465800771 4.3094324521 0.5716260144
H 6.5254091313 4.0179473133 -1.1660297710
H -8.6212264932 1.0185272885 0.7337902740
H -8.5122191458 1.3599882374 -1.0139629550
H -9.1506771442 2.5907839867 0.1064868406
H -7.9049501568 4.2790110817 0.2949390619
H -6.4089672406 4.1893503605 -0.6713483593
H -6.3364496042 4.1266484026 1.1100275285
H 3.3500894504 -2.9029745534 0.1076849803
H -3.3147475475 -2.9161394909 0.0056105499
H 2.1811737619 -4.9929819006 0.0614055797
H -2.1380528981 -5.0006772538 0.0163771699
H 0.0238489178 -6.2780865094 0.0349324843
55
step=83 E=-1132.052681289785 Eh
N 7.0817223936 2.4183196820 0.1252180447
N -7.0828890250 2.3679485352 0.2037396178
N 0.0169639347 -2.4069892592 0.0423355057
C 5.9780794927 1.5908599965 0.0890148839
C -5.9699507434 1.5543676218 0.1533782707
C 3.6918594169 -0.1265946610 0.0470993351
C -3.6698654079 -0.1435285464 0.0864772212
C 4.6747127079 2.1069377729 -0.0713595184
C 6.1051756953 0.1878907362 0.2126539619
C -4.6648409721 2.0819694917 0.2492528676
C -6.0894583167 0.1534483258 0.0010063121
C 3.5718498488 1.2627822071 -0.0840819026
C 4.9909335155 -0.6361922386 0.1941167179
C -3.5557739857 1.2463310574 0.2181196998
C -4.9689498608 -0.6616144038 -0.0270126104
C 2.4876928562 -0.9661792283 0.0266895318
C -2.4603619625 -0.9755380927 0.0732885022
C 1.1733403401 -3.0738840296 0.0527044089
C -1.1369881987 -3.0779863414 0.0310630417
C 8.4053975033 1.8472213945 0.1771917738
C 6.9247795717 3.8251575244 -0.1514660434
C -8.3935477472 1.8036544503 -0.0066178859
C -6.9187750929 3.8005443600 0.2314869805
C 2.4329763475 -2.3059492613 0.0664046633
C -2.3996468168 -2.3150263654 0.0313982282
C 1.2178826746 -4.4774059494 0.0518798733
C -1.1764253226 -4.4816871307 0.0259779614
C 0.0219987032 -5.1847709416 0.0370274298
H 4.5138613289 3.1797453090 -0.1832507222
H 7.0891448525 -0.2681281832 0.3281147421
H -4.5081455332 3.1563174338 0.3522097873
H -7.0725738669 -0.3080983995 -0.0985537039
H 2.5749821153 1.6990481493 -0.2051134593
H 5.1424338195 -1.7141458347 0.3011500476
H -2.5583224956 1.6901852272 0.3007517039
H -5.1152669195 -1.7387907783 -0.1480894763
H 1.5282270625 -0.4388573951 -0.0275711990
H -1.5030406909 -0.4428351366 0.1098405466
H 8.6472090682 1.2405584619 -0.7167700013
H 8.5340325555 1.2029526075 1.0634200403
H 9.1464296708 2.6538495416 0.2495088886
H 7.8999109681 4.3226519053 -0.0711348683
H 6.2464018975 4.3091153691 0.5720664539
H 6.5252389867 4.0177200426 -1.1656029152
H -8.6210888614 1.0181240152 0.7341990722
H -8.5121181341 1.3595525766 -1.0135622170
H -9.1505439110 2.5903731867 0.1068753285
H -7.9048059383 4.2785897822 0.2953658093
H -6.4088015704 4.1889695739 -0.6708885223
H -6.3363246239 4.1261749971 1.1104849920
H 3.3501656432 -2.9033981089 0.1078950553
H -3.3146777128 -2.9166288912 0.0058986216
H 2.1812680663 -4.9934407618 0.0615746287
H -2.1379602488 -5.0011743385 0.0165832335
H 0.0239527894 -6.2785619115 0.0350786603
55
step=84 E=-1132.052681398615 Eh
N 7.0816168398 2.4181511233 0.1254537070
N -7.0827727672 2.3676714804 0.2039729325
N 0.0170149323 -2.4073314975 0.0425220216
C 5.9780039026 1.5906535303 0.0892528888
C -5.9698488405 1.5540721561 0.1536087317
C 3.6918436707 -0.1268790094 0.0473312878
C -3.6697888263 -0.1438556314 0.0866924632
C 4.6746206507 2.1066860654 -0.0711340327
C 6.1051478880 0.1876897421 0.2129072560
C -4.6647313599 2.0816540024 0.2494929794
C -6.0893779125 0.1531557037 0.0012227290
C 3.5717872273 1.2624929259 -0.0838591607
C 4.9909337316 -0.6364314170 0.1943666311
C -3.5556766953 1.2460002406 0.2183512360
C -4.9688802042 -0.6619220424 -0.0268040830
C 2.4877048196 -0.9665028660 0.0269108679
C -2.4602966627 -0.9758797797 0.0734923349
C 1.1733928173 -3.0742220557 0.0528700744
C -1.1369354781 -3.0783302010 0.0312387232
C 8.4053112671 1.8471032900 0.1774774174
C 6.9246219835 3.8249913767 -0.1511861915
C -8.3934463128 1.8034006159 -0.0063535732
C -6.9186349597 3.8002633450 0.2317784983
C 2.4330208294 -2.3062752664 0.0665817917
C -2.3995935363 -2.3153680932 0.0315915910
C 1.2179406901 -4.4777433314 0.0520120943
C -1.1763688304 -4.4820313028 0.0261226300
C 0.0220583039 -5.1851113353 0.0371497495
H 4.5137337786 3.1794873678 -0.1830348399
H 7.0891315598 -0.2682937246 0.3283838102
H -4.5080208070 3.1559987338 0.3524624946
H -7.0725002393 -0.3083755580 -0.0983433433
H 2.5749055412 1.6987237748 -0.2049011983
H 5.1424684983 -1.7143788231 0.3014151032
H -2.5582190894 1.6898385446 0.3009896407
H -5.1152114072 -1.7390952844 -0.1478930940
H 1.5282232582 -0.4392068751 -0.0273229901
H -1.5029697645 -0.4431877533 0.1100426737
H 8.6471593099 1.2404137702 -0.7164557064
H 8.5339552036 1.2028736800 1.0637338115
H 9.1463130427 2.6537611903 0.2497721041
H 7.8997352150 4.3225191984 -0.0708429258
H 6.2462265561 4.3089031701 0.5723611988
H 6.5250733085 4.0175690396 -1.1653166862
H -8.6209910876 1.0178822199 0.7344759184
H -8.5120413508 1.3592898905 -1.0132906960
H -9.1504251552 2.5901357817 0.1071411969
H -7.9046586397 4.2783234091 0.2956578526
H -6.4086408534 4.1887127997 -0.6705745956
H -6.3361918798 4.1258523651 1.1107975673
H 3.3502207785 -2.9037094962 0.1080395511
H -3.3146279675 -2.9169657611 0.0060926085
H 2.1813275896 -4.9937752630 0.0616890453
H -2.1379023148 -5.0015216720 0.0167206305
H 0.0240157659 -6.2789023657 0.0351753514
55
step=85 E=-1132.052681749045 Eh
N 7.0816119907 2.4173759216 0.1262951021
N -7.0827022086 2.3665257366 0.2048068665
N 0.0171607592 -2.4083251050 0.0431807058
C 5.9780161959 1.5898613769 0.0900961598
C -5.9697625912 1.5529534516 0.1544340543
C 3.6919074175 -0.1277384394 0.0481450891
C -3.6696821934 -0.1449462248 0.0874604490
C 4.6746213037 2.1058549460 -0.0703280242
C 6.1051935312 0.1869026391 0.2137927771
C -4.6646509526 2.0805470668 0.2503425355
C -6.0892721262 0.1520386397 0.0020070275
C 3.5718147141 1.2616283320 -0.0830670936
C 4.9910041579 -0.6372520698 0.1952369122
C -3.5555882153 1.2449063862 0.2191689218
C -4.9687655799 -0.6630261737 -0.0260500834
C 2.4877961405 -0.9673965225 0.0276854505
C -2.4601782402 -0.9769490707 0.0742177289
C 1.1735652240 -3.0751723595 0.0534527041
C -1.1367676474 -3.0793626381 0.0318661078
C 8.4053090405 1.8463515517 0.1784873865
C 6.9245913683 3.8242453262 -0.1501730564
C -8.3933695180 1.8021998088 -0.0054061248
C -6.9186160098 3.7991189319 0.2328095813
C 2.4331641814 -2.3071762582 0.0671990218
C -2.3994475126 -2.3164353921 0.0322847360
C 1.2181615599 -4.4786919121 0.0524805925
C -1.1761498850 -4.4830644347 0.0266452464
C 0.0223035347 -5.1861004262 0.0375905926
H 4.5137070575 3.1786484852 -0.1822536037
H 7.0891879538 -0.2690494585 0.3293195832
H -4.5079531321 3.1548894250 0.3533498016
H -7.0723904730 -0.3095010151 -0.0975726494
H 2.5749235377 1.6978278021 -0.2041403964
H 5.1425624489 -1.7151914950 0.3023302590
H -2.5581359090 1.6887528342 0.3018223516
H -5.1150823214 -1.7401972251 -0.1471754326
H 1.5282947037 -0.4401281852 -0.0264498542
H -1.5028607677 -0.4442402706 0.1107553700
H 8.6472131314 1.2395483646 -0.7153516314
H 8.5339110487 1.2022361258 1.0648371882
H 9.1462981008 2.6530274643 0.2507091416
H 7.8996970813 4.3217799338 -0.0697842062
H 6.2461900713 4.3080632049 0.5734336646
H 6.5250334306 4.0169321730 -1.1642776287
H -8.6208463872 1.0167063198 0.7354741267
H -8.5120048315 1.3580369052 -1.0123142598
H -9.1503688724 2.5889153106 0.1080868256
H -7.9046596777 4.2771371709 0.2966881452
H -6.4085866594 4.1876967802 -0.6694664536
H -6.3362300698 4.1246218115 1.1119004004
H 3.3503902032 -2.9045795317 0.1085396407
H -3.3144680519 -2.9180547677 0.0067941883
H 2.1815665961 -4.9946915246 0.0620927478
H -2.1376639411 -5.0025899854 0.0172232961
H 0.0243006149 -6.2798908766 0.0355293461
55
step=86 E=-1132.052681876873 Eh
N 7.0814942436 2.4171662163 0.1265826411
N -7.0825652551 2.3661882306 0.2050901671
N 0.0172142043 -2.4087370354 0.0434031470
C 5.9779349628 1.5896065533 0.0903853711
C -5.9696487458 1.5525881836 0.1547118799
C 3.6918893453 -0.1280735297 0.0484231476
C -3.6696018549 -0.1453521956 0.0877172256
C 4.6745233921 2.1055533850 -0.0700543261
C 6.1051639809 0.1866538992 0.2140987850
C -4.6645283492 2.0801579027 0.2506272568
C -6.0891875266 0.1516772187 0.0022712550
C 3.5717468875 1.2612880009 -0.0827988421
C 4.9910030012 -0.6375394572 0.1955370075
C -3.5554811421 1.2444974422 0.2194421441
C -4.9686955862 -0.6634076044 -0.0257968448
C 2.4878077102 -0.9677729514 0.0279496156
C -2.4601111441 -0.9773744301 0.0744596785
C 1.1736253996 -3.0755725717 0.0536517597
C -1.1367077638 -3.0797840861 0.0320772514
C 8.4052172234 1.8462099731 0.1788348504
C 6.9244066942 3.8240377779 -0.1498314979
C -8.3932566894 1.8019042233 -0.0050789246
C -6.9184381280 3.7987745129 0.2331592657
C 2.4332119364 -2.3075557879 0.0674112175
C -2.3993897013 -2.3168611013 0.0325165782
C 1.2182362313 -4.4790917593 0.0526425400
C -1.1760770211 -4.4834854570 0.0268222543
C 0.0223836213 -5.1865101931 0.0377422035
H 4.5135729353 3.1783409800 -0.1819901453
H 7.0891730176 -0.2692608798 0.3296447082
H -4.5078116218 3.1544964565 0.3536469306
H -7.0723146938 -0.3098421269 -0.0973118482
H 2.5748412573 1.6974508748 -0.2038849214
H 5.1425966526 -1.7154725446 0.3026475019
H -2.5580199615 1.6883242487 0.3020997328
H -5.1150313723 -1.7405749435 -0.1469340292
H 1.5282892573 -0.4405324181 -0.0261543262
H -1.5027867678 -0.4446765496 0.1109925339
H 8.6471685559 1.2393768009 -0.7149700045
H 8.5338335248 1.2021419337 1.0652178712
H 9.1461652067 2.6529256481 0.2510301583
H 7.8994889928 4.3216155782 -0.0694278922
H 6.2459825381 4.3077978751 0.5737933906
H 6.5248383587 4.0167421689 -1.1639283192
H -8.6207435402 1.0164292391 0.7358184927
H -8.5119307319 1.3577301693 -1.0119768574
H -9.1502260978 2.5886477604 0.1084175498
H -7.9044687167 4.2768188351 0.2970410514
H -6.4083841076 4.1873752905 -0.6690923277
H -6.3360551633 4.1242243336 1.1122723486
H 3.3504518558 -2.9049407506 0.1087142920
H -3.3144113325 -2.9184782699 0.0070291024
H 2.1816462426 -4.9950827970 0.0622347236
H -2.1375857857 -5.0030199611 0.0173929867
H 0.0243907365 -6.2803006042 0.0356527359
55
step=87 E=-1132.052681979816 Eh
N 7.0813936163 2.4170008541 0.1268106192
N -7.0824548978 2.3659182626 0.2053163444
N 0.0172643646 -2.4090685033 0.0435850753
C 5.9778645852 1.5894028076 0.0906163343
C -5.9695512446 1.5523020028 0.1549358463
C 3.6918769563 -0.1283516557 0.0486489994
C -3.6695274899 -0.1456672950 0.0879272663
C 4.6744373531 2.1053067885 -0.0698341166
C 6.1051400754 0.1864555482 0.2143436313
C -4.6644239895 2.0798533941 0.2508621879
C -6.0891095115 0.1513941489 0.0024805467
C 3.5716891194 1.2610051826 -0.0825809539
C 4.9910061250 -0.6377743182 0.1957789427
C -3.5553877576 1.2441789862 0.2196691416
C -4.9686277940 -0.6637043726 -0.0255947800
C 2.4878217872 -0.9680885731 0.0281654632
C -2.4600471390 -0.9777034103 0.0746589537
C 1.1736763725 -3.0759011072 0.0538131699
C -1.1366564024 -3.0801160191 0.0322481548
C 8.4051372995 1.8460980516 0.1791095346
C 6.9242517368 3.8238744322 -0.1495603798
C -8.3931589228 1.8016537485 -0.0048248225
C -6.9183077344 3.7985010861 0.2334429690
C 2.4332559208 -2.3078737077 0.0675839019
C -2.3993370468 -2.3171901723 0.0327046902
C 1.2182914975 -4.4794198532 0.0527708359
C -1.1760233265 -4.4838174906 0.0269623051
C 0.0224395456 -5.1868398302 0.0378604052
H 4.5134528858 3.1780887195 -0.1817784143
H 7.0891629342 -0.2694249955 0.3299037338
H -4.5076935941 3.1541890240 0.3538950291
H -7.0722425323 -0.3101106745 -0.0971096088
H 2.5747698784 1.6971343559 -0.2036761559
H 5.1426329917 -1.7157014690 0.3029032514
H -2.5579208549 1.6879912432 0.3023341526
H -5.1149766359 -1.7408685938 -0.1467446595
H 1.5282884525 -0.4408722978 -0.0259120336
H -1.5027173183 -0.4450157548 0.1111912667
H 8.6471249493 1.2392402245 -0.7146679585
H 8.5337654144 1.2020682514 1.0655194165
H 9.1460531621 2.6528450616 0.2512824394
H 7.8993153350 4.3214871063 -0.0691462372
H 6.2458100169 4.3075881566 0.5740798858
H 6.5246737755 4.0165925917 -1.1636505712
H -8.6206483467 1.0161895263 0.7360839096
H -8.5118543078 1.3574714256 -1.0117161010
H -9.1501136514 2.5884112209 0.1086725335
H -7.9043325483 4.2765574184 0.2973242621
H -6.4082334101 4.1871271112 -0.6687860014
H -6.3359337916 4.1239113514 1.1125774515
H 3.3505056001 -2.9052455540 0.1088550476
H -3.3143621482 -2.9188022721 0.0072168992
H 2.1817025800 -4.9954090713 0.0623455492
H -2.1375311202 -5.0033540314 0.0175255069
H 0.0244487549 -6.2806303039 0.0357454910
55
step=88 E=-1132.052682210893 Eh
N 7.0813446713 2.4165197929 0.1273621701
N -7.0823569730 2.3651928042 0.2058613776
N 0.0173507855 -2.4097470018 0.0440055951
C 5.9778370562 1.5888985523 0.0911658879
C -5.9694663695 1.5515647042 0.1554693634
C 3.6918945368 -0.1289140058 0.0491721012
C -3.6694532182 -0.1464116428 0.0884169755
C 4.6743992228 2.1047680355 -0.0693150832
C 6.1051451715 0.1859560268 0.2149229470
C -4.6643380002 2.0791111886 0.2514010819
C -6.0890346773 0.1506593290 0.0029940065
C 3.5716730769 1.2604382718 -0.0820747109
C 4.9910317382 -0.6383018464 0.1963446910
C -3.5553063686 1.2434325679 0.2201844347
C -4.9685562003 -0.6644434585 -0.0251043389
C 2.4878632475 -0.9686812120 0.0286606125
C -2.4599730164 -0.9784470015 0.0751186867
C 1.1737859672 -3.0765416221 0.0541885532
C -1.1365497683 -3.0808290014 0.0326512111
C 8.4050982186 1.8456533793 0.1797766481
C 6.9241674617 3.8234091766 -0.1489006790
C -8.3930839113 1.8009507445 -0.0041898544
C -6.9181896598 3.7977696459 0.2341081476
C 2.4333408266 -2.3084714864 0.0679814121
C -2.3992478490 -2.3179329674 0.0331487130
C 1.2184435131 -4.4800593624 0.0530784819
C -1.1758727291 -4.4845304392 0.0273036954
C 0.0226125113 -5.1875151768 0.0381523571
H 4.5133906598 3.1775442320 -0.1812774228
H 7.0891772061 -0.2698971751 0.3305204001
H -4.5076039717 3.1534442297 0.3544528422
H -7.0721710399 -0.3108384624 -0.0965965979
H 2.5747451934 1.6965404058 -0.2031947998
H 5.1426803086 -1.7162230130 0.3035003783
H -2.5578362933 1.6872385731 0.3028514031
H -5.1149083736 -1.7416053130 -0.1462719867
H 1.5283134689 -0.4414899336 -0.0253578199
H -1.5026451131 -0.4457536631 0.1116369746
H 8.6471353683 1.2387241582 -0.7139376012
H 8.5337060170 1.2017014310 1.0662485178
H 9.1459926041 2.6524238521 0.2519036792
H 7.8992187883 4.3210401464 -0.0684542985
H 6.2457123970 4.3070540247 0.5747744975
H 6.5245845659 4.0161906437 -1.1629759449
H -8.6205566330 1.0155153355 0.7367562533
H -8.5118368582 1.3567371470 -1.0110594724
H -9.1500150355 2.5877298465 0.1093125552
H -7.9042087351 4.2758361377 0.2979965783
H -6.4080867904 4.1864559627 -0.6680773898
H -6.3358319076 4.1231059125 1.1132819131
H 3.3506122320 -2.9058162196 0.1091816403
H -3.3142626018 -2.9195602906 0.0076709811
H 2.1818706616 -4.9960201618 0.0626146581
H -2.1373635368 -5.0040969998 0.0178562656
H 0.0246559126 -6.2813053689 0.0359862183
55
step=89 E=-1132.052682339239 Eh
N 7.0812385095 2.4162907202 0.1276605841
N -7.0822366114 2.3648323676 0.2061575767
N 0.0174144348 -2.4101659204 0.0442420932
C 5.9777660124 1.5886255623 0.0914675654
C -5.9693549174 1.5511946285 0.1557630634
C 3.6918894886 -0.1292715905 0.0494658632
C -3.6693650325 -0.1468141277 0.0886910088
C 4.6743107925 2.1044468310 -0.0690264360
C 6.1051265715 0.1856890049 0.2152409724
C -4.6642185667 2.0787202028 0.2517070491
C -6.0889420389 0.1502928531 0.0032698580
C 3.5716170742 1.2600756487 -0.0817897942
C 4.9910438946 -0.6386106408 0.1966584714
C -3.5551987071 1.2430266260 0.2204794142
C -4.9684753475 -0.6648256915 -0.0248387959
C 2.4878880213 -0.9690806889 0.0289410432
C -2.4598955391 -0.9788639293 0.0753780499
C 1.1738513451 -3.0769568047 0.0543987682
C -1.1364849090 -3.0812489199 0.0328742133
C 8.4050167476 1.8454887607 0.1801345301
C 6.9239968310 3.8231835288 -0.1485442566
C -8.3929694941 1.8005922057 -0.0038575516
C -6.9180641836 3.7974069824 0.2344781468
C 2.4333982766 -2.3088740724 0.0682058514
C -2.3991815731 -2.3183500473 0.0333942687
C 1.2185138987 -4.4804740919 0.0532467578
C -1.1758042616 -4.4849501747 0.0274876972
C 0.0226836532 -5.1879315522 0.0383082953
H 4.5132638402 3.1772164420 -0.1809984313
H 7.0891743008 -0.2701253275 0.3308560546
H -4.5074691900 3.1530494963 0.3547749434
H -7.0720848136 -0.3111892702 -0.0963284603
H 2.5746737491 1.6961396306 -0.2029209369
H 5.1427298142 -1.7165250653 0.3038309073
H -2.5577223034 1.6868171476 0.3031546281
H -5.1148420210 -1.7419840123 -0.1460220169
H 1.5283215118 -0.4419159374 -0.0250428302
H -1.5025618212 -0.4461807971 0.1118945725
H 8.6470984163 1.2385275826 -0.7135449829
H 8.5336381212 1.2015849867 1.0666405229
H 9.1458724292 2.6522971173 0.2522329163
H 7.8990260654 4.3208554013 -0.0680841999
H 6.2455216057 4.3067702217 0.5751518289
H 6.5244016652 4.0159858912 -1.1626103131
H -8.6204324410 1.0151678683 0.7371042313
H -8.5117414540 1.3563641056 -1.0107178764
H -9.1498955752 2.5873760679 0.1096439914
H -7.9040826285 4.2754748056 0.2983650592
H -6.4079402163 4.1861328447 -0.6676778916
H -6.3357234626 4.1227012149 1.1136795628
H 3.3506807914 -2.9062045278 0.1093649041
H -3.3141997632 -2.9199721238 0.0079170979
H 2.1819423782 -4.9964328120 0.0627605981
H -2.1372934475 -5.0045194575 0.0180311760
H 0.0247297452 -6.2817216986 0.0361100377
55
step=90 E=-1132.052682567635 Eh
N 7.0811807930 2.4158213979 0.1282006486
N -7.0821334986 2.3641199069 0.2066933107
N 0.0175032238 -2.4108402694 0.0446601216
C 5.9777309823 1.5881318289 0.0920077119
C -5.9692635996 1.5504733801 0.1562895465
C 3.6919055275 -0.1298325719 0.0499841723
C -3.6692835602 -0.1475437723 0.0891773198
C 4.6742629490 2.1039139143 -0.0685132684
C 6.1051287637 0.1852007494 0.2158096724
C -4.6641260514 2.0779922387 0.2522453409
C -6.0888608746 0.1495757075 0.0037718251
C 3.5715944447 1.2595102395 -0.0812871797
C 4.9910707027 -0.6391317315 0.1972159636
C -3.5551095303 1.2422954286 0.2209959038
C -4.9683982378 -0.6655472349 -0.0243578523
C 2.4879306729 -0.9696767265 0.0294332713
C -2.4598147353 -0.9795950749 0.0758360125
C 1.1739611047 -3.0775980967 0.0547717602
C -1.1363784595 -3.0819541115 0.0332727246
C 8.4049675874 1.8450529468 0.1807850398
C 6.9239046541 3.8227300333 -0.1478967150
C -8.3928835061 1.7998941244 -0.0032417197
C -6.9179488733 3.7966892943 0.2351375458
C 2.4334848135 -2.3094757442 0.0686014508
C -2.3990888563 -2.3190805428 0.0338329888
C 1.2186617261 -4.4811145732 0.0535506958
C -1.1756579734 -4.4856544577 0.0278226456
C 0.0228493376 -5.1886022990 0.0385944812
H 4.5131873600 3.1766774222 -0.1805023650
H 7.0891872296 -0.2705824214 0.3314591585
H -4.5073726734 3.1523187704 0.3553359475
H -7.0720058022 -0.3118980514 -0.0958319492
H 2.5746403057 1.6955438331 -0.2024407525
H 5.1427832316 -1.7170397782 0.3044184084
H -2.5576294407 1.6860796612 0.3036781107
H -5.1147683795 -1.7427030181 -0.1455625897
H 1.5283459391 -0.4425385192 -0.0244916733
H -1.5024814241 -0.4469073866 0.1123431525
H 8.6470948559 1.2380214216 -0.7128328162
H 8.5335697536 1.2012252399 1.0673513697
H 9.1458039640 2.6518828260 0.2528368851
H 7.8989224138 4.3204192252 -0.0674070710
H 6.2454183524 4.3062493651 0.5758355470
H 6.5243023318 4.0155957514 -1.1619470635
H -8.6203288805 1.0144947232 0.7377529607
H -8.5117041011 1.3556374198 -1.0100821722
H -9.1497921456 2.5866937246 0.1102629883
H -7.9039644312 4.2747620107 0.2990280722
H -6.4077943205 4.1854805667 -0.6669717931
H -6.3356302178 4.1219113689 1.1143815417
H 3.3507885390 -2.9067801521 0.1096898791
H -3.3140982981 -2.9207142737 0.0083622325
H 2.1821045708 -4.9970484788 0.0630262009
H -2.1371311518 -5.0052502726 0.0183536131
H 0.0249255269 -6.2823919485 0.0363436714
55
step=91 E=-1132.052682712318 Eh
N 7.0810888049 2.4155516953 0.1285379923
N -7.0820226600 2.3636983156 0.2070279514
N 0.0175718814 -2.4112932408 0.0449232585
C 5.9776686542 1.5878255402 0.0923463922
C -5.9691614773 1.5500420409 0.1566194420
C 3.6919031629 -0.1302162887 0.0503108436
C -3.6691995965 -0.1479971879 0.0894829921
C 4.6741845545 2.1035626712 -0.0681911338
C 6.1051133472 0.1849001381 0.2161668550
C -4.6640182820 2.0775464639 0.2525844486
C -6.0887732610 0.1491470262 0.0040850398
C 3.5715453939 1.2591214748 -0.0809708031
C 4.9910833987 -0.6394701883 0.1975668329
C -3.5550108899 1.2418386071 0.2213216554
C -4.9683188914 -0.6659868354 -0.0240573357
C 2.4879566407 -0.9700996794 0.0297440968
C -2.4597381037 -0.9800571130 0.0761243700
C 1.1740343517 -3.0780418317 0.0550060164
C -1.1363055391 -3.0824132112 0.0335225467
C 8.4048935911 1.8448330615 0.1811913136
C 6.9237615190 3.8224669629 -0.1474933280
C -8.3927828284 1.7994796775 -0.0028600339
C -6.9178292925 3.7962650247 0.2355511915
C 2.4335468349 -2.3099017505 0.0688507829
C -2.3990182120 -2.3195424493 0.0341082034
C 1.2187463404 -4.4815575829 0.0537399847
C -1.1755750748 -4.4861138583 0.0280309811
C 0.0229383058 -5.1890529411 0.0387716239
H 4.5130740956 3.1763199983 -0.1801913347
H 7.0891856493 -0.2708474121 0.3318376314
H -4.5072539535 3.1518701108 0.3556903843
H -7.0719231308 -0.3123150816 -0.0955237043
H 2.5745776540 1.6951199651 -0.2021381368
H 5.1428293519 -1.7173717562 0.3047884224
H -2.5575261305 1.6856108605 0.3040095372
H -5.1146986686 -1.7431397724 -0.1452766551
H 1.5283552356 -0.4429881678 -0.0241432904
H -1.5024014079 -0.4473756829 0.1126266972
H 8.6470621314 1.2377620151 -0.7123874633
H 8.5334982480 1.2010567102 1.0677958715
H 9.1457001927 2.6516927166 0.2532128606
H 7.8987617173 4.3201875439 -0.0669861735
H 6.2452584965 4.3059304758 0.5762616458
H 6.5241500450 4.0153629801 -1.1615338910
H -8.6202175105 1.0140950841 0.7381547758
H -8.5116308971 1.3552052544 -1.0096887890
H -9.1496819957 2.5862881426 0.1106453803
H -7.9038429612 4.2743414276 0.2994426084
H -6.4076535632 4.1850975304 -0.6665278795
H -6.3355257363 4.1214405829 1.1148233940
H 3.3508636971 -2.9071889141 0.1098941779
H -3.3140287591 -2.9211749330 0.0086403742
H 2.1821929217 -4.9974848078 0.0631909110
H -2.1370444744 -5.0057169585 0.0185532333
H 0.0250224425 -6.2828425953 0.0364865155
55
step=92 E=-1132.052682986672 Eh
N 7.0810456447 2.4149190127 0.1292381820
N -7.0819332522 2.3627608497 0.2077223062
N 0.0177056761 -2.4121432984 0.0454650968
C 5.9776640049 1.5871478464 0.0930488069
C -5.9690656406 1.5491184540 0.1573028095
C 3.6919615387 -0.1309690332 0.0509843158
C -3.6690909532 -0.1489003756 0.0901135546
C 4.6741671863 2.1028436938 -0.0675180209
C 6.1051564115 0.1842284135 0.2169003126
C -4.6639262309 2.0766310168 0.2532832979
C -6.0886660697 0.1482247515 0.0047358855
C 3.5715583476 1.2583638374 -0.0803119813
C 4.9911535541 -0.6401784617 0.1982856180
C -3.5549136584 1.2409322911 0.2219916626
C -4.9682048179 -0.6668994159 -0.0234340404
C 2.4880447390 -0.9708918850 0.0303840692
C -2.4596211323 -0.9809442786 0.0767182407
C 1.1741812925 -3.0788688189 0.0554907789
C -1.1361609971 -3.0832808588 0.0340390469
C 8.4048804916 1.8442858228 0.1820266570
C 6.9236392849 3.8218511281 -0.1466520463
C -8.3926974959 1.7985163988 -0.0020659592
C -6.9177651486 3.7953264360 0.2364061160
C 2.4336762858 -2.3106997606 0.0693651939
C -2.3988857653 -2.3204282138 0.0346764983
C 1.2189187515 -4.4823834775 0.0541365766
C -1.1754042531 -4.4869822289 0.0284660845
C 0.0231230416 -5.1898996257 0.0391450916
H 4.5130251279 3.1755944571 -0.1795351174
H 7.0892413664 -0.2714826662 0.3326107868
H -4.5071705812 3.1509528273 0.3564191718
H -7.0718137422 -0.3132426916 -0.0948804994
H 2.5745779203 1.6943266604 -0.2015036770
H 5.1429286201 -1.7180724465 0.3055410576
H -2.5574323693 1.6847093063 0.3046887616
H -5.1145739348 -1.7440506560 -0.1446816121
H 1.5284247137 -0.4438072657 -0.0234254784
H -1.5022905692 -0.4482525965 0.1132090591
H 8.6471228096 1.2371335940 -0.7114750032
H 8.5334858039 1.2006102905 1.0687071907
H 9.1456364090 2.6511971972 0.2539858552
H 7.8986133449 4.3196170356 -0.0661112271
H 6.2451141217 4.3052105484 0.5771536379
H 6.5240087711 4.0148199789 -1.1606700602
H -8.6200852788 1.0131562362 0.7389919768
H -8.5115897459 1.3542002147 -1.0088700373
H -9.1496011406 2.5853202074 0.1114406320
H -7.9037891955 4.2733805933 0.3002998839
H -6.4075588169 4.1842574719 -0.6656116745
H -6.3355014937 4.1204249219 1.1157350166
H 3.3510112305 -2.9079656677 0.1103175948
H -3.3138894108 -2.9220724037 0.0092165939
H 2.1823746122 -4.9982942885 0.0635391654
H -2.1368642273 -5.0066036574 0.0189720521
H 0.0252272600 -6.2836892615 0.0367930652
55
step=93 E=-1132.052683110916 Eh
N 7.0809341334 2.4147262961 0.1295041146
N -7.0818063767 2.3624438369 0.2079872860
N 0.0177580405 -2.4125280104 0.0456752056
C 5.9775787850 1.5869221592 0.0933160453
C -5.9689533614 1.5487824094 0.1575644316
C 3.6919394329 -0.1312793693 0.0512442829
C -3.6690089451 -0.1492759524 0.0903568411
C 4.6740635094 2.1025683192 -0.0672629760
C 6.1051203615 0.1840087863 0.2171824679
C -4.6638043215 2.0762705599 0.2535546617
C -6.0885787948 0.1478921312 0.0049823200
C 3.5714860612 1.2580483825 -0.0800604396
C 4.9911487659 -0.6404399786 0.1985639906
C -3.5548070361 1.2405524742 0.2222527800
C -4.9681314086 -0.6672508984 -0.0231971094
C 2.4880523915 -0.9712444482 0.0306322072
C -2.4595528393 -0.9813381265 0.0769482098
C 1.1742383404 -3.0792426565 0.0556782125
C -1.1361028982 -3.0836733690 0.0342375540
C 8.4047810454 1.8441273903 0.1823464370
C 6.9234883287 3.8216643034 -0.1463328156
C -8.3925845699 1.7982192368 -0.0017663470
C -6.9176165332 3.7950057163 0.2367357165
C 2.4337212574 -2.3110549383 0.0695649960
C -2.3988290109 -2.3208220198 0.0348946296
C 1.2189887451 -4.4827563424 0.0542878002
C -1.1753362348 -4.4873753753 0.0286308780
C 0.0231983824 -5.1902820175 0.0392856230
H 4.5128826320 3.1753123671 -0.1792891542
H 7.0892206806 -0.2716642194 0.3329091862
H -4.5070296879 3.1505884692 0.3567043277
H -7.0717346785 -0.3135567325 -0.0946399398
H 2.5744905310 1.6939739115 -0.2012625389
H 5.1429615085 -1.7183272616 0.3058347650
H -2.5573180642 1.6843102775 0.3049562374
H -5.1145184725 -1.7443983087 -0.1444578377
H 1.5284147348 -0.4441883839 -0.0231478023
H -1.5022160101 -0.4486585725 0.1134369610
H 8.6470533339 1.2369433212 -0.7111245636
H 8.5333859716 1.2004916196 1.0690568728
H 9.1455165912 2.6510593388 0.2542817502
H 7.8984489919 4.3194541648 -0.0657782535
H 6.2449507339 4.3049797344 0.5774914811
H 6.5238502651 4.0146582711 -1.1603427990
H -8.6199732765 1.0128722395 0.7393062499
H -8.5115018876 1.3538915830 -1.0085619539
H -9.1494725135 2.5850380535 0.1117407591
H -7.9036342774 4.2730728841 0.3006293183
H -6.4073880310 4.1839653219 -0.6652568601
H -6.3353627681 4.1200601533 1.1160882859
H 3.3510694794 -2.9083022427 0.1104818663
H -3.3138353318 -2.9224626876 0.0094355411
H 2.1824489198 -4.9986590383 0.0636711292
H -2.1367921052 -5.0070049391 0.0191289786
H 0.0253122364 -6.2840716867 0.0369058308
55
step=94 E=-1132.052683214234 Eh
N 7.0808329848 2.4145589538 0.1297337493
N -7.0816953261 2.3621703554 0.2082165200
N 0.0178082443 -2.4128633607 0.0458589615
C 5.9775059974 1.5867185752 0.0935483318
C -5.9688534463 1.5484943163 0.1577915885
C 3.6919251714 -0.1315588475 0.0514715320
C -3.6689330991 -0.1495947703 0.0905696162
C 4.6739742033 2.1023204600 -0.0670404732
C 6.1050942649 0.1838105438 0.2174277710
C -4.6636968617 2.0759629829 0.2537927911
C -6.0884985037 0.1476071063 0.0051946577
C 3.5714255708 1.2577640170 -0.0798402764
C 4.9911502245 -0.6406756564 0.1988064242
C -3.5547113858 1.2402298885 0.2224827170
C -4.9680620736 -0.6675505518 -0.0229922436
C 2.4880648674 -0.9715615808 0.0308495047
C -2.4594881692 -0.9816716304 0.0771500021
C 1.1742896422 -3.0795734240 0.0558412796
C -1.1360507517 -3.0840096438 0.0344102139
C 8.4046978160 1.8440067514 0.1826219131
C 6.9233378116 3.8215000228 -0.1460584196
C -8.3924833492 1.7979587042 -0.0015100369
C -6.9174903367 3.7947295931 0.2370228593
C 2.4337649295 -2.3113740356 0.0697393128
C -2.3987760071 -2.3211556002 0.0350846885
C 1.2190456053 -4.4830864703 0.0544175469
C -1.1752811350 -4.4877120964 0.0287723909
C 0.0232566785 -5.1906150461 0.0394051569
H 4.5127583269 3.1750585857 -0.1790743720
H 7.0892088157 -0.2718277960 0.3331680232
H -4.5069075497 3.1502777990 0.3569558405
H -7.0716606543 -0.3138267722 -0.0944346138
H 2.5744162667 1.6936553323 -0.2010507827
H 5.1429967642 -1.7185570446 0.3060902720
H -2.5572165909 1.6839722884 0.3051935667
H -5.1144629971 -1.7446947059 -0.1442657941
H 1.5284120834 -0.4445304270 -0.0229041493
H -1.5021458742 -0.4490029543 0.1136385027
H 8.6470030634 1.2367972807 -0.7108221483
H 8.5333116916 1.2004080558 1.0693588314
H 9.1454052782 2.6509662771 0.2545349139
H 7.8982816246 4.3193211317 -0.0654936340
H 6.2447850691 4.3047707592 0.5777823083
H 6.5236899624 4.0145103021 -1.1600612207
H -8.6198713775 1.0126217024 0.7395741882
H -8.5114189470 1.3536216223 -1.0082989140
H -9.1493605847 2.5847878354 0.1119968400
H -7.9035040234 4.2728053890 0.3009151086
H -6.4072419926 4.1837163317 -0.6649465862
H -6.3352475162 4.1197463236 1.1163974168
H 3.3511233068 -2.9086072437 0.1106243605
H -3.3137859208 -2.9227913115 0.0096249393
H 2.1825072601 -4.9989863294 0.0637833212
H -2.1367358265 -5.0073445902 0.0192628033
H 0.0253738245 -6.2844048476 0.0369997001
55
step=95 E=-1132.052683513638 Eh
N 7.0808320438 2.4139015794 0.1304518849
N -7.0816300288 2.3611820809 0.2089324690
N 0.0179185776 -2.4137174610 0.0464155423
C 5.9775130365 1.5860572093 0.0942647353
C -5.9687910621 1.5475094873 0.1584950012
C 3.6919697886 -0.1322712476 0.0521582584
C -3.6688617839 -0.1505612441 0.0912190858
C 4.6739728637 2.1016290719 -0.0663582643
C 6.1051233042 0.1831537358 0.2181799960
C -4.6636403734 2.0749880782 0.2545112997
C -6.0884283226 0.1466238785 0.0058660274
C 3.5714433571 1.2570480189 -0.0791723902
C 4.9911990718 -0.6413582205 0.1995434484
C -3.5546515530 1.2392618642 0.2231716045
C -4.9679863338 -0.6685264450 -0.0223492633
C 2.4881307241 -0.9722995528 0.0315014916
C -2.4594070577 -0.9826216566 0.0777618178
C 1.1744340482 -3.0803742531 0.0563370649
C -1.1359123289 -3.0849147178 0.0349417164
C 8.4046890413 1.8433480867 0.1834849552
C 6.9233346583 3.8208694378 -0.1451942504
C -8.3924367092 1.7969766143 -0.0006866914
C -6.9174244622 3.7937360187 0.2379017009
C 2.4338776166 -2.3121194683 0.0702640097
C -2.3986633112 -2.3221038211 0.0356703700
C 1.2192480318 -4.4838858832 0.0548215290
C -1.1750805889 -4.4886173932 0.0292193376
C 0.0234892675 -5.1914653111 0.0397863730
H 4.5127368378 3.1743612812 -0.1784131636
H 7.0892447373 -0.2724606092 0.3339649287
H -4.5068598858 3.1493005188 0.3577041784
H -7.0715890821 -0.3148136537 -0.0937699862
H 2.5744271720 1.6929161827 -0.2004114753
H 5.1430623485 -1.7192334190 0.3068653542
H -2.5571588533 1.6830084862 0.3058910482
H -5.1143780572 -1.7456686139 -0.1436509053
H 1.5284608690 -0.4452917367 -0.0221745856
H -1.5020735977 -0.4499357388 0.1142379413
H 8.6470332541 1.2360386069 -0.7098787559
H 8.5332555119 1.1998441285 1.0703007806
H 9.1453987043 2.6503105423 0.2553373740
H 7.8982789059 4.3186828766 -0.0645900777
H 6.2447831890 4.3040700832 0.5786962326
H 6.5236822804 4.0139782143 -1.1591752555
H -8.6197933414 1.0116707260 0.7404427949
H -8.5114328140 1.3525994066 -1.0074495738
H -9.1492983914 2.5838198685 0.1128241778
H -7.9034396906 4.2718070598 0.3017982910
H -6.4071398217 4.1828135625 -0.6640061559
H -6.3352145459 4.1186633563 1.1173324579
H 3.3512619868 -2.9093207233 0.1110555641
H -3.3136561797 -2.9237652912 0.0102188894
H 2.1827319419 -4.9997458887 0.0641356363
H -2.1365109914 -5.0082929577 0.0196935548
H 0.0256554493 -6.2852543818 0.0373109195
55
step=96 E=-1132.052683619878 Eh
N 7.0807136855 2.4137141464 0.1307085019
N -7.0815019982 2.3608849245 0.2091876933
N 0.0179773389 -2.4140936153 0.0466169835
C 5.9774338709 1.5858198754 0.0945240819
C -5.9686735959 1.5471997579 0.1587473027
C 3.6919579001 -0.1325931514 0.0524091771
C -3.6687720759 -0.1509087332 0.0914529922
C 4.6738762438 2.1013435260 -0.0661099660
C 6.1050993024 0.1829223511 0.2184524490
C -4.6635132740 2.0746542256 0.2547723691
C -6.0883336675 0.1463179386 0.0061039187
C 3.5713794086 1.2567210288 -0.0789282035
C 4.9912052824 -0.6416309597 0.1998113693
C -3.5545378559 1.2389106861 0.2234226145
C -4.9679054759 -0.6688505415 -0.0221209535
C 2.4881487880 -0.9726638103 0.0317405610
C -2.4593306182 -0.9829874637 0.0779825435
C 1.1744913969 -3.0807510388 0.0565170678
C -1.1358544104 -3.0852874142 0.0351318998
C 8.4046013092 1.8432377395 0.1837916594
C 6.9231408059 3.8206824163 -0.1448886393
C -8.3923145794 1.7966826265 -0.0003996199
C -6.9172885273 3.7934368120 0.2382189751
C 2.4339280597 -2.3124858745 0.0704564169
C -2.3986020098 -2.3224701665 0.0358794985
C 1.2193065916 -4.4842622354 0.0549668795
C -1.1750237686 -4.4889899825 0.0293772215
C 0.0235462190 -5.1918392510 0.0399212385
H 4.5126015494 3.1740695069 -0.1781722359
H 7.0892367297 -0.2726528280 0.3342523006
H -4.5067146939 3.1489629541 0.3579783950
H -7.0715020013 -0.3151017271 -0.0935372943
H 2.5743475576 1.6925507357 -0.2001765665
H 5.1431063628 -1.7194997453 0.3071467978
H -2.5570376379 1.6826394943 0.3061478479
H -5.1143146656 -1.7459890970 -0.1434351241
H 1.5284624369 -0.4456829251 -0.0219071375
H -1.5019897137 -0.4503145975 0.1144566168
H 8.6469931747 1.2359048954 -0.7095423725
H 8.5331906307 1.1997773048 1.0706365600
H 9.1452644873 2.6502448916 0.2556190281
H 7.8980590568 4.3185448020 -0.0642738736
H 6.2445657677 4.3038239481 0.5790200450
H 6.5234742798 4.0138027704 -1.1588615649
H -8.6196635695 1.0113872381 0.7407440560
H -8.5113278623 1.3522922395 -1.0071540687
H -9.1491708641 2.5835310257 0.1131100227
H -7.9033020409 4.2715114488 0.3021144229
H -6.4069853021 4.1825463792 -0.6636642185
H -6.3350919294 4.1183274371 1.1176728690
H 3.3513226824 -2.9096733622 0.1112142457
H -3.3136000609 -2.9241239098 0.0104288046
H 2.1827901051 -5.0001230026 0.0642628453
H -2.1364545670 -5.0086648152 0.0198437900
H 0.0257110941 -6.2856283207 0.0374192451
55
step=97 E=-1132.052683728771 Eh
N 7.0806123624 2.4135239951 0.1309602990
N -7.0813894207 2.3605800530 0.2094393314
N 0.0180322635 -2.4144553074 0.0468183432
C 5.9773642577 1.5855889439 0.0947792455
C -5.9685724924 1.5468799304 0.1589964212
C 3.6919472667 -0.1328984318 0.0526582841
C -3.6686936271 -0.1512564715 0.0916863056
C 4.6737907650 2.1010696523 -0.0658652829
C 6.1050773474 0.1826967292 0.2187214480
C -4.6634050839 2.0743160830 0.2550337964
C -6.0882513449 0.1460011806 0.0063364748
C 3.5713225043 1.2564107879 -0.0786863558
C 4.9912100688 -0.6418927893 0.2000768448
C -3.5544405814 1.2385589241 0.2236750496
C -4.9678329652 -0.6691804499 -0.0218965698
C 2.4881650855 -0.9730069325 0.0319786324
C -2.4592624534 -0.9833482659 0.0782038440
C 1.1745474020 -3.0811078511 0.0566959101
C -1.1357974495 -3.0856497457 0.0353209792
C 8.4045228847 1.8431061082 0.1840929752
C 6.9229802824 3.8204947981 -0.1445885987
C -8.3922129338 1.7963923396 -0.0001183741
C -6.9171594713 3.7931290605 0.2385342631
C 2.4339762438 -2.3128309310 0.0706476661
C -2.3985448651 -2.3228308262 0.0360875769
C 1.2193686554 -4.4846184030 0.0551092778
C -1.1749632770 -4.4893527158 0.0295321470
C 0.0236098522 -5.1921985399 0.0400522719
H 4.5124819121 3.1737901008 -0.1779355389
H 7.0892286748 -0.2728439613 0.3345358931
H -4.5065930277 3.1486218083 0.3582547593
H -7.0714254866 -0.3154042769 -0.0933126073
H 2.5742770885 1.6922063297 -0.1999436954
H 5.1431440721 -1.7197556630 0.3074261014
H -2.5569350463 1.6822730731 0.3064085961
H -5.1142545902 -1.7463157984 -0.1432250026
H 1.5284635251 -0.4460512889 -0.0216404529
H -1.5019165737 -0.4506855767 0.1146779973
H 8.6469535133 1.2357465152 -0.7092115243
H 8.5331261169 1.1996873352 1.0709669981
H 9.1451509637 2.6501475744 0.2558951348
H 7.8978784624 4.3183947840 -0.0639636293
H 6.2443874257 4.3035854888 0.5793383089
H 6.5233016419 4.0136309502 -1.1585535414
H -8.6195614429 1.0111077773 0.7410378433
H -8.5112464541 1.3519919268 -1.0068655506
H -9.1490571891 2.5832522842 0.1133912663
H -7.9031685382 4.2712131580 0.3024282688
H -6.4068344900 4.1822684369 -0.6633235330
H -6.3349748753 4.1179782624 1.1180123135
H 3.3513812920 -2.9100041580 0.1113709498
H -3.3135461109 -2.9244801449 0.0106358557
H 2.1828538684 -5.0004761561 0.0643861733
H -2.1363928365 -5.0090306359 0.0199901434
H 0.0257780899 -6.2859878249 0.0375221699
55
step=98 E=-1132.052683988166 Eh
N 7.0805704814 2.4129335192 0.1316225463
N -7.0813005583 2.3596954562 0.2100979510
N 0.0181529698 -2.4152618968 0.0473228423
C 5.9773504349 1.5849679575 0.0954383083
C -5.9684801532 1.5460076404 0.1596420904
C 3.6919928302 -0.1335971207 0.0532844549
C -3.6685944689 -0.1521184308 0.0922769295
C 4.6737632188 2.1004045967 -0.0652373082
C 6.1051066333 0.1820815087 0.2194098196
C -4.6633148158 2.0734472618 0.2556843178
C -6.0881539469 0.1451311278 0.0069584747
C 3.5713250092 1.2557077417 -0.0780746146
C 4.9912675602 -0.6425465497 0.2007487815
C -3.5543468721 1.2376960859 0.2242962849
C -4.9677330739 -0.6700459503 -0.0213034379
C 2.4882398184 -0.9737439383 0.0325715955
C -2.4591576833 -0.9842012534 0.0787574489
C 1.1746858018 -3.0818881323 0.0571480236
C -1.1356634091 -3.0864811327 0.0358051441
C 8.4044960672 1.8425663621 0.1848861643
C 6.9228895998 3.8199231468 -0.1437917096
C -8.3921278060 1.7954819938 0.0006433066
C -6.9170948795 3.7922428223 0.2393359999
C 2.4340932330 -2.3135742520 0.0711262650
C -2.3984230333 -2.3236832814 0.0366208857
C 1.2195379463 -4.4853978968 0.0554824898
C -1.1747956308 -4.4901834483 0.0299440354
C 0.0237934132 -5.1930018722 0.0404067713
H 4.5124217320 3.1731176487 -0.1773238535
H 7.0892708343 -0.2734234954 0.3352645450
H -4.5065072305 3.1477508543 0.3589279159
H -7.0713275973 -0.3162757885 -0.0926899508
H 2.5742671812 1.6914685885 -0.1993574845
H 5.1432318969 -1.7204022119 0.3081305613
H -2.5568415494 1.6814128308 0.3070312747
H -5.1141502189 -1.7471797503 -0.1426528407
H 1.5285193894 -0.4468149847 -0.0209781074
H -1.5018154918 -0.4515285542 0.1152154744
H 8.6469858546 1.2351262069 -0.7083458556
H 8.5330822010 1.1992380514 1.0718312145
H 9.1450942914 2.6496396572 0.2566335804
H 7.8977715261 4.3178483518 -0.0631312341
H 6.2442824859 4.3029266407 0.5801813667
H 6.5231996437 4.0131365687 -1.1577361220
H -8.6194280909 1.0102243917 0.7418448727
H -8.5112076537 1.3510370681 -1.0060773969
H -9.1489761359 2.5823374109 0.1141536161
H -7.9031134979 4.2703056568 0.3032346371
H -6.4067458631 4.1814709357 -0.6624682168
H -6.3349438966 4.1170244134 1.1188625430
H 3.3515185093 -2.9107233582 0.1117674460
H -3.3134156916 -2.9253452435 0.0111806697
H 2.1830344400 -5.0012358258 0.0647149979
H -2.1362120273 -5.0098833233 0.0203894236
H 0.0259858318 -6.2867904326 0.0378169650
55
step=99 E=-1132.052684109183 Eh
N 7.0804608610 2.4127223380 0.1319008629
N -7.0811775867 2.3593552918 0.2103762592
N 0.0182119502 -2.4156618512 0.0475462584
C 5.9772756984 1.5847127680 0.0957206952
C -5.9683717588 1.5456488647 0.1599175154
C 3.6919824122 -0.1339332974 0.0535606772
C -3.6685113388 -0.1525070797 0.0925352205
C 4.6736713027 2.1001030303 -0.0649645716
C 6.1050837414 0.1818319761 0.2197058399
C -4.6631996000 2.0730697841 0.2559739848
C -6.0880661174 0.1447757092 0.0072152333
C 3.5712641503 1.2553666156 -0.0778048923
C 4.9912740090 -0.6428360223 0.2010413328
C -3.5542439048 1.2373033074 0.2245760964
C -4.9676561547 -0.6704160278 -0.0210555765
C 2.4882583665 -0.9741207709 0.0328358908
C -2.4590852607 -0.9846035055 0.0790026936
C 1.1747474316 -3.0822807633 0.0573469749
C -1.1356014398 -3.0868837931 0.0360148498
C 8.4044107195 1.8424178961 0.1852167848
C 6.9227156837 3.8197150457 -0.1434581973
C -8.3920199201 1.7951651700 0.0009544645
C -6.9169481478 3.7918985477 0.2396848688
C 2.4341461343 -2.3139535011 0.0713388768
C -2.3983616585 -2.3240854740 0.0368512329
C 1.2196072790 -4.4857896056 0.0556415535
C -1.1747280992 -4.4905866102 0.0301162687
C 0.0238656671 -5.1933989144 0.0405531661
H 4.5122926119 3.1728099898 -0.1770585576
H 7.0892632861 -0.2736354500 0.3355751277
H -4.5063777790 3.1473701470 0.3592344000
H -7.0712459938 -0.3166155997 -0.0924422925
H 2.5741912377 1.6910904651 -0.1990962343
H 5.1432741552 -1.7206854479 0.3084370464
H -2.5567327306 1.6810041087 0.3073207067
H -5.1140865379 -1.7475463816 -0.1424210200
H 1.5285213930 -0.4472187710 -0.0206817937
H -1.5017378660 -0.4519411943 0.1154613385
H 8.6469413126 1.2349489295 -0.7079836071
H 8.5330126636 1.1991343440 1.0721929943
H 9.1449713416 2.6495279365 0.2569362742
H 7.8975759626 4.3176807989 -0.0627873457
H 6.2440904893 4.3026622863 0.5805364153
H 6.5230110849 4.0129474638 -1.1573928886
H -8.6193238083 1.0099204485 0.7421695154
H -8.5111247591 1.3507102958 -1.0057583487
H -9.1488507131 2.5820373457 0.1144652926
H -7.9029599741 4.2699756387 0.3035819896
H -6.4065736148 4.1811577122 -0.6620911842
H -6.3348091504 4.1166319818 1.1192381055
H 3.3515828362 -2.9110869569 0.1119420059
H -3.3133573616 -2.9257434567 0.0114095077
H 2.1831061218 -5.0016229917 0.0648533853
H -2.1361424042 -5.0102913675 0.0205520377
H 0.0260636023 -6.2871876486 0.0379326156
55
step=100 E=-1132.052684213420 Eh
N 7.0803641831 2.4125423400 0.1321407343
N -7.0810685894 2.3590652037 0.2106163707
N 0.0182611254 -2.4160068826 0.0477363685
C 5.9772072675 1.5844962047 0.0959627732
C -5.9682749115 1.5453423371 0.1601544601
C 3.6919689459 -0.1342195831 0.0537957500
C -3.6684381637 -0.1528428214 0.0927559944
C 4.6735876623 2.0998457455 -0.0647332680
C 6.1050592919 0.1816202501 0.2199611508
C -4.6630953247 2.0727445778 0.2562206042
C -6.0879888939 0.1444718960 0.0074378280
C 3.5712073134 1.2550753455 -0.0775768785
C 4.9912745371 -0.6430816116 0.2012926440
C -3.5541513112 1.2369635155 0.2248136175
C -4.9675890682 -0.6707335058 -0.0208413368
C 2.4882702509 -0.9744420910 0.0330600991
C -2.4590227746 -0.9849528038 0.0792115993
C 1.1747994216 -3.0826175083 0.0575159832
C -1.1355482350 -3.0872323711 0.0361939877
C 8.4043337408 1.8422886171 0.1855045543
C 6.9225670115 3.8195381000 -0.1431723985
C -8.3919235986 1.7948929446 0.0012250582
C -6.9168197185 3.7916053820 0.2399837587
C 2.4341894781 -2.3142765625 0.0715193685
C -2.3983095152 -2.3244344757 0.0370484190
C 1.2196683712 -4.4861257448 0.0557767828
C -1.1746686361 -4.4909358055 0.0302638577
C 0.0239301419 -5.1937415700 0.0406782170
H 4.5121768213 3.1725474323 -0.1768349588
H 7.0892518193 -0.2738150455 0.3358449726
H -4.5062592972 3.1470420722 0.3594940911
H -7.0711749558 -0.3169050072 -0.0922255587
H 2.5741219153 1.6907670597 -0.1988773030
H 5.1433052624 -1.7209254582 0.3087016221
H -2.5566346397 1.6806492031 0.3075645642
H -5.1140325746 -1.7478606536 -0.1422191384
H 1.5285189896 -0.4475644321 -0.0204311684
H -1.5016705977 -0.4523007535 0.1156691967
H 8.6468996328 1.2347934800 -0.7076677272
H 8.5329459289 1.1990440075 1.0725084834
H 9.1448638483 2.6494286181 0.2572007492
H 7.8974096125 4.3175368101 -0.0624912000
H 6.2439258437 4.3024388435 0.5808392301
H 6.5228520395 4.0127867926 -1.1570997301
H -8.6192284080 1.0096598863 0.7424531301
H -8.5110504879 1.3504280221 -1.0054803277
H -9.1487403181 2.5817786502 0.1147362811
H -7.9028260643 4.2696940258 0.3038803379
H -6.4064246978 4.1808905917 -0.6617692915
H -6.3346900825 4.1162988053 1.1195588934
H 3.3516369029 -2.9113951652 0.1120903739
H -3.3133077537 -2.9260891288 0.0116065513
H 2.1831702288 -5.0019538016 0.0649707380
H -2.1360806327 -5.0106459351 0.0206920190
H 0.0261342979 -6.2875306059 0.0380316467
55
step=101 E=-1132.052684472725 Eh
N 7.0803035554 2.4119769237 0.1327749552
N -7.0809664775 2.3582051807 0.2112514280
N 0.0183821306 -2.4168050593 0.0482427108
C 5.9771817669 1.5838919243 0.0966032233
C -5.9681762092 1.5444859108 0.1607830130
C 3.6920122232 -0.1349114150 0.0544194033
C -3.6683366197 -0.1536903287 0.0933436981
C 4.6735452893 2.0991929409 -0.0641093835
C 6.1050862000 0.1810224292 0.2206252996
C -4.6630008375 2.0718914239 0.2568774454
C -6.0878867470 0.1436193839 0.0080272097
C 3.5711985276 1.2543795153 -0.0769616151
C 4.9913338671 -0.6437235157 0.2019482816
C -3.5540550002 1.2361140453 0.2254473784
C -4.9674856148 -0.6715835636 -0.0202734150
C 2.4883456435 -0.9751770760 0.0336564866
C -2.4589160801 -0.9857918154 0.0797688230
C 1.1749371543 -3.0833919031 0.0579677718
C -1.1354162344 -3.0880521951 0.0366723883
C 8.4042913484 1.8417808330 0.1862510644
C 6.9224449863 3.8189902388 -0.1424027889
C -8.3918308142 1.7940302427 0.0019373620
C -6.9167233649 3.7907410088 0.2407754333
C 2.4343083111 -2.3150185162 0.0719993692
C -2.3981886399 -2.3252730056 0.0375740130
C 1.2198326434 -4.4868990399 0.0561421080
C -1.1745064373 -4.4917549044 0.0306612201
C 0.0241070261 -5.1945354299 0.0410179719
H 4.5120961022 3.1718872425 -0.1762223873
H 7.0892946732 -0.2743719197 0.3365378186
H -4.5061700239 3.1461857766 0.3601864561
H -7.0710717552 -0.3177559023 -0.0916536650
H 2.5740971073 1.6900320736 -0.1982771724
H 5.1434007938 -1.7215600421 0.3093836720
H -2.5565388174 1.6797998534 0.3082173494
H -5.1139239346 -1.7487079676 -0.1416850981
H 1.5285736569 -0.4483280879 -0.0197609261
H -1.5015671048 -0.4531315481 0.1162255405
H 8.6469089833 1.2342106897 -0.7068542247
H 8.5329004209 1.1986234373 1.0733212241
H 9.1447879909 2.6489562002 0.2578875838
H 7.8972686714 4.3170212052 -0.0616969123
H 6.2437940259 4.3017996377 0.5816620097
H 6.5227063550 4.0123129057 -1.1563054388
H -8.6191104698 1.0088186948 0.7431978123
H -8.5109965249 1.3495351251 -1.0047487144
H -9.1486407913 2.5809219350 0.1154481877
H -7.9027336405 4.2688210165 0.3046682734
H -6.4062877990 4.1801154825 -0.6609144225
H -6.3346340667 4.1153516299 1.1204090362
H 3.3517752226 -2.9121140893 0.1124846962
H -3.3131795943 -2.9269383006 0.0121313633
H 2.1833440405 -5.0027100119 0.0652900800
H -2.1359065339 -5.0114849982 0.0210701541
H 0.0263328034 -6.2883237038 0.0383050560
