53
0 1 Before single point calculation
C -7.079774946 -2.379446598 -0.077645931
N -6.804711562 -0.943534948 -0.113197731
C -7.960023298 -0.052160089 -0.211110664
C -5.492733846 -0.444440146 -0.062438251
C -4.396827472 -1.302272673 0.090204384
C -3.115763124 -0.814384821 0.133144155
C -2.859401783 0.557588144 0.027202683
C -1.495134954 1.032988307 0.066160959
C -1.097332929 2.318848465 -0.002396178
C 0.279310311 2.699790340 0.025929848
C 0.763679654 3.983011616 -0.024889119
C 2.170359536 4.060905549 -0.011696822
C 2.809153525 2.842994945 0.035729481
C 4.233991487 2.696351315 -0.031060141
C 4.939462524 1.545489191 -0.142961595
C 4.423127465 0.178968255 -0.079175161
C 3.573298163 -0.242320647 0.946974982
C 3.115774479 -1.533290231 1.005391268
C 3.491944011 -2.478053150 0.043974491
N 3.014990559 -3.797952303 0.098627125
C 2.048383315 -4.220377453 1.111584604
C 3.451491257 -4.810559050 -0.861925247
C 4.363084714 -2.063048939 -0.970178112
C 4.821922035 -0.772163981 -1.025417925
S 1.606775052 1.577207116 0.142537710
C -3.954572358 1.416613095 -0.122089873
C -5.235734359 0.927954559 -0.165836253
H -8.138730421 -2.581352056 -0.225185124
H -6.783782694 -2.792442629 0.884980384
H -6.528046377 -2.885646515 -0.867568890
H -8.893185535 -0.608206950 -0.145386247
H -7.943501145 0.476923676 -1.162393416
H -7.942891512 0.673031633 0.600539483
H -4.564861988 -2.360787955 0.178736173
H -2.286370896 -1.491263939 0.249709146
H -0.727841347 0.284221215 0.153751568
H -1.827174759 3.103120061 -0.084918341
H 0.120841455 4.847578583 -0.086820139
H 2.707185919 4.995179306 -0.074415869
H 4.784079902 3.622133365 -0.083848109
H 5.998753094 1.630485494 -0.335084751
H 3.291543204 0.465373902 1.708542812
H 2.459915320 -1.827483487 1.805190011
H 1.728463742 -5.247485935 0.946853926
H 1.166625139 -3.582880447 1.075299607
H 2.494196806 -4.156235831 2.102692845
H 3.050918760 -5.790676115 -0.610337636
H 4.537755545 -4.881493432 -0.862906059
H 3.110410419 -4.547885135 -1.861800930
H 4.671826260 -2.768631128 -1.720747196
H 5.489554471 -0.469075256 -1.813959157
H -3.789856000 2.475797308 -0.209473744
H -6.058930590 1.609029885 -0.288489715
