70
0 1 Before single point calculation
C -9.955962820 -3.663054194 0.793121803
N -9.683258229 -2.251091944 0.532311734
C -10.765731491 -1.353880239 0.952319423
C -8.365237178 -1.790824030 0.321675011
C -7.291825640 -2.489761073 0.858523379
C -5.998675376 -2.013118494 0.774216696
C -5.694520205 -0.811677305 0.150955484
C -4.306410082 -0.353262260 0.138023612
C -3.210048502 -1.175973385 0.097853903
C -1.968636260 -0.498182751 0.119343301
C -2.079983023 0.858384912 0.184132673
C -0.953880976 1.781788423 0.230673221
C -1.093770137 3.135863083 0.329976807
S 0.443151395 3.891679020 0.380239731
C 1.209258666 2.311737010 0.262890289
C 2.630048728 2.120826386 0.250957665
C 3.584544572 3.094794893 0.377230995
C 4.913406283 2.611950261 0.342575333
C 5.025394472 1.250679111 0.187303485
C 6.252664046 0.476650244 0.127231692
C 7.474765369 1.110257846 0.304685635
C 8.673184889 0.428779673 0.238472625
C 8.727557250 -0.934594785 -0.019907373
N 9.976926509 -1.570949046 -0.187008446
C 10.247397463 -2.479603979 -1.307874807
C 11.184752943 -1.033078831 0.436681272
C 7.487482869 -1.649537773 -0.142585369
C 7.459827857 -3.052645211 -0.258516614
C 6.283948592 -3.734344110 -0.383217588
C 5.074744430 -3.044141392 -0.382766388
C 5.063538899 -1.690121109 -0.233577712
C 6.254669576 -0.945258687 -0.091580961
S 3.416090177 0.573790341 0.069639835
N 0.348938909 1.331126637 0.190312662
S -3.761481843 1.310444802 0.209914929
C -6.762785697 -0.084004350 -0.475440819
C -6.531646641 1.092866538 -1.217015585
C -7.538720265 1.730930785 -1.878851086
C -8.832123365 1.214796204 -1.845694115
C -9.097787911 0.079853491 -1.135388788
C -8.089790249 -0.586069920 -0.411818401
H -10.990054067 -3.897905801 0.547928585
H -9.310425527 -4.290005516 0.180842272
H -9.784650015 -3.893590430 1.842921498
H -11.176060632 -1.684998025 1.904791002
H -10.394703463 -0.339098680 1.083593613
H -11.565169716 -1.352420628 0.213655915
H -7.482908607 -3.400827157 1.397318451
H -5.203177053 -2.568327469 1.240245462
H -3.287555106 -2.250491648 0.039025410
H -1.012314673 -0.997522819 0.093037852
H -2.030971316 3.653690682 0.373747119
H 3.334159951 4.137133086 0.498602315
H 5.762983758 3.269804352 0.431161555
H 7.493069990 2.168734270 0.492566265
H 9.594830219 0.972847904 0.346265238
H 10.500715941 -3.471925555 -0.939370535
H 11.083266280 -2.106625177 -1.897071555
H 9.381329629 -2.548758920 -1.963395338
H 11.941697558 -1.810414784 0.523775648
H 10.958878023 -0.664416094 1.435667771
H 11.588319604 -0.217868808 -0.161157840
H 8.384219561 -3.597969357 -0.208304267
H 6.287874868 -4.808343580 -0.474338163
H 4.148418101 -3.585369696 -0.485613905
H 4.112640543 -1.174978821 -0.216274610
H -5.533873951 1.486123949 -1.266478082
H -7.333930659 2.627502705 -2.440769173
H -9.619631363 1.707958917 -2.391941289
H -10.085732800 -0.341826540 -1.161736345
