57
0 1 Before single point calculation
C -8.350100829 -4.335179389 -0.076647109
C -7.344606799 -3.651884746 -0.707474422
N -6.852527849 -2.746866792 0.206708744
C -5.784870980 -1.798326725 0.016015031
C -4.721705104 -2.093122800 -0.826480261
C -3.701502427 -1.190792301 -1.013809105
C -3.709081704 0.043859823 -0.361924386
C -2.640573721 1.016428746 -0.542515257
C -1.562055627 0.908030791 -1.374983846
C -0.683996881 2.015069015 -1.329043642
C -1.064938377 2.992349371 -0.456054296
C -0.357520257 4.240034318 -0.186231818
C -0.955607490 5.501937885 -0.075885139
C 0.042385391 6.400660929 0.192825835
O 1.246970218 5.776278088 0.272216772
C 1.017743708 4.439021313 0.051207041
C 2.064891084 3.441202446 0.126417608
C 3.346410386 3.736538131 0.490708728
C 4.206762410 2.616177821 0.546808612
C 3.601655666 1.435519526 0.216465136
C 4.208934983 0.113143945 0.183731340
C 3.452350950 -0.992695910 -0.205736890
C 4.003534483 -2.250307194 -0.251546023
C 5.333930621 -2.450177600 0.091237609
N 5.914316966 -3.767732091 0.040846150
C 6.916506969 -4.275153292 0.838448905
C 7.129645716 -5.562694734 0.423946108
N 6.303085402 -5.871135501 -0.597549609
C 5.581279948 -4.803477623 -0.822914693
C 6.094931714 -1.356664589 0.482813595
C 5.545472614 -0.097241140 0.529072052
S 1.931526518 1.732109551 -0.189138423
S -2.563465800 2.540181924 0.306532701
C -4.781248239 0.329371937 0.483824245
C -5.800404498 -0.573670357 0.669262749
C -7.607439178 -2.947513117 1.355386531
N -8.497862034 -3.891869025 1.189286135
H -8.955760683 -5.120387135 -0.508498624
H -7.003213070 -3.773560441 -1.722590099
H -4.702481997 -3.046230191 -1.324786938
H -2.884043454 -1.439776735 -1.666513618
H -1.390001977 0.056668698 -2.014097918
H 0.199462812 2.095590348 -1.943647507
H -2.004501378 5.715066538 -0.190361047
H -0.089506861 7.466814408 0.330448951
H 3.655869310 4.741908267 0.732866905
H 5.244490762 2.692302154 0.829907489
H 2.420648271 -0.845275288 -0.472444574
H 3.406864185 -3.095933412 -0.545074339
H 7.413377187 -3.751895775 1.639133142
H 7.849243271 -6.254991550 0.839423346
H 4.830251998 -4.739146248 -1.596542385
H 7.128312901 -1.508009531 0.740884923
H 6.151235420 0.737290904 0.833893883
H -4.800163502 1.276907442 0.992759434
H -6.627196452 -0.337080376 1.315381413
H -7.473442648 -2.404709256 2.279508997
