20
0 1 Before single point calculation
N 1.707100107 0.001600000 -0.003500000
C 0.296700010 0.000800000 -0.002200000
C -0.402000030 1.190100029 -0.209900010
C -0.399600012 -1.189600035 0.207499992
C 2.440799958 1.176100055 0.424500007
C 2.441300078 -1.176699973 -0.419700003
C -1.796799994 1.189300013 -0.207900000
C -1.794600043 -1.190500101 0.209400000
C -2.492999998 -0.001000000 0.001700000
H 0.109300008 2.131900200 -0.387800020
H 0.112999998 -2.130800035 0.384400013
H 2.474400149 1.924999968 -0.373699996
H 3.475500081 0.923799987 0.682499989
H 1.993899928 1.624300096 1.319300119
H 3.474500091 -0.925100061 -0.684700003
H 2.479500018 -1.915599994 0.387600016
H 1.992600043 -1.636900010 -1.307400046
H -2.341100053 2.114700159 -0.372099994
H -2.337300196 -2.116600088 0.375200011
H -3.579100018 -0.001700000 0.003300000
20
step=1 E=-365.852559148018 Eh
N 1.7071000008 0.0016000000 -0.0035000000
C 0.2967000001 0.0008000000 -0.0022000000
C -0.4020000002 1.1901000006 -0.2099000001
C -0.3996000002 -1.1896000006 0.2075000001
C 2.4408000012 1.1761000006 0.4245000002
C 2.4413000012 -1.1767000006 -0.4197000002
C -1.7968000008 1.1893000006 -0.2079000001
C -1.7946000008 -1.1905000006 0.2094000001
C -2.4930000012 -0.0010000000 0.0017000000
H 0.1093000001 2.1319000010 -0.3878000002
H 0.1130000001 -2.1308000010 0.3844000002
H 2.4744000012 1.9250000009 -0.3737000002
H 3.4755000016 0.9238000004 0.6825000003
H 1.9939000009 1.6243000008 1.3193000006
H 3.4745000016 -0.9251000004 -0.6847000003
H 2.4795000012 -1.9156000009 0.3876000002
H 1.9926000009 -1.6369000008 -1.3074000006
H -2.3411000011 2.1147000010 -0.3721000002
H -2.3373000011 -2.1166000010 0.3752000002
H -3.5791000017 -0.0017000000 0.0033000000
20
step=2 E=-365.855910315109 Eh
N 1.7241483179 -0.0017807134 -0.0051859142
C 0.3321106533 0.0183382676 -0.0052276060
C -0.4086348374 1.2036699738 -0.1477125928
C -0.3891878880 -1.1785149786 0.1413087438
C 2.4456462462 1.1991500467 0.3409314380
C 2.4378482798 -1.2122482375 -0.3330506500
C -1.8026519847 1.1753840313 -0.1354400611
C -1.7835559036 -1.1728864362 0.1361220653
C -2.5329903690 -0.0045901704 0.0021739715
H 0.1031552684 2.1601671573 -0.2762413329
H 0.1381204945 -2.1268256582 0.2674335355
H 2.5226333904 1.9339087221 -0.4845741679
H 3.4693909835 0.9302500578 0.6386543240
H 1.9750826845 1.7015371928 1.2024079005
H 3.4648184654 -0.9549728486 -0.6302142615
H 2.5057816985 -1.9380798600 0.5013195440
H 1.9664763807 -1.7205276343 -1.1903879845
H -2.3436396740 2.1192649516 -0.2495086249
H -2.3088269689 -2.1252696723 0.2529715632
H -3.6268426731 -0.0132210164 0.0049795914
20
step=3 E=-365.855670527162 Eh
N 1.7073657320 -0.0034794697 -0.0028817808
C 0.3343943599 -0.0212377286 0.0011088172
C -0.3852631654 1.1965191236 -0.0452633620
C -0.4136742253 -1.2245834846 0.0503329858
C 2.4101085382 1.2309881457 0.2180816263
C 2.4386829337 -1.2205543275 -0.2171030009
C -1.7753448041 1.2150067059 -0.0343212100
C -1.8033819377 -1.2190081618 0.0409710886
C -2.4693990271 0.0059569602 0.0033235095
H 0.1698130158 2.1408636675 -0.0946183787
H 0.1211100597 -2.1797880684 0.1020124781
H 2.4930971328 1.9086399040 -0.6655955482
H 3.4343518308 0.9887968161 0.5461534194
H 1.9239101990 1.8099924368 1.0269844672
H 3.4521025920 -0.9528154550 -0.5583409699
H 2.5486515725 -1.8874371718 0.6720795205
H 1.9597572516 -1.8191784291 -1.0155455039
H -2.3083472655 2.1771888620 -0.0718805114
H -2.3564041244 -2.1698110835 0.0807589053
H -3.5662889805 0.0187618540 0.0041640033
20
step=4 E=-365.857740060644 Eh
N 1.7055302520 0.0205022185 0.0037572093
C 0.3229492375 0.0101696663 0.0020477581
C -0.4215187247 1.2103106943 -0.0446590671
C -0.3992022587 -1.2037696434 0.0442972853
C 2.4698161941 1.2193260665 0.2329968337
C 2.4189894484 -1.2093708712 -0.2194805813
C -1.8121994264 1.1913215008 -0.0435698558
C -1.7896426270 -1.2034106782 0.0356345108
C -2.5124670610 -0.0125630031 -0.0058365972
H 0.0970738780 2.1701435069 -0.0957122831
H 0.1362415327 -2.1546666281 0.0976252672
H 2.5461305420 1.8736581773 -0.6599046537
H 3.4928983577 0.9502603169 0.5354750738
H 2.0320606304 1.8193975455 1.0483900422
H 3.4471863211 -0.9846902219 -0.5401250794
H 2.4820180897 -1.8557199562 0.6804801509
H 1.9453292817 -1.8011963954 -1.0207472707
H -2.3552274094 2.1416158490 -0.0837428231
H -2.3174836568 -2.1622599688 0.0728749704
H -3.6058649399 -0.0225427895 -0.0086121196
20
step=5 E=-365.856335063524 Eh
N 1.7131317727 -0.0340530858 -0.0155272009
C 0.3264585459 -0.0299528629 -0.0076093001
C -0.3754138282 1.1911778961 -0.0401709846
C -0.4197555869 -1.2240437647 0.0393066047
C 2.3718417260 1.2255666083 0.2252137288
C 2.4890652153 -1.2321511292 -0.2394780855
C -1.7668370897 1.1953806548 -0.0288757849
C -1.8109253021 -1.1737095972 0.0479767439
C -2.5208579315 0.0244414820 0.0140753900
H 0.1599680692 2.1392465052 -0.0928680918
H 0.0760758644 -2.1925198974 0.0896003091
H 2.3794250355 1.8696990789 -0.6719438795
H 3.4136586336 1.0560983161 0.5262431034
H 1.8871097440 1.7860487381 1.0390790474
H 3.5155976202 -0.9736260450 -0.5314171981
H 2.5459837143 -1.8667754073 0.6629155290
H 2.0685360188 -1.8404055507 -1.0537152647
H -2.2809765419 2.1575289400 -0.0600494673
H -2.3611457839 -2.1153781865 0.0887794335
H -3.6116320781 0.0446688791 0.0218931940
20
step=6 E=-365.858004397818 Eh
N 1.7101061972 -0.0056003348 -0.0039651507
C 0.3267695604 -0.0094571822 -0.0002011052
C -0.3982881486 1.2005609519 -0.0424693552
C -0.4084929582 -1.2135471726 0.0436814358
C 2.4248767887 1.2231114181 0.2292993251
C 2.4515930218 -1.2216898882 -0.2275605336
C -1.7893691983 1.1956978514 -0.0360208340
C -1.7996212004 -1.1917588659 0.0405883559
C -2.5122101670 0.0050721223 0.0031438256
H 0.1312562603 2.1537365537 -0.0944012203
H 0.1110031124 -2.1719321321 0.0942157409
H 2.4755060276 1.8763557067 -0.6641934014
H 3.4561095506 0.9972400120 0.5355395986
H 1.9613287290 1.8055448962 1.0423830933
H 3.4753894284 -0.9778063984 -0.5455424396
H 2.5237186352 -1.8631317924 0.6732284216
H 1.9947190902 -1.8238937480 -1.0293854102
H -2.3186215832 2.1523576894 -0.0729316344
H -2.3387796838 -2.1428151998 0.0789266356
H -3.6049122358 0.0099193509 0.0046328212
20
step=7 E=-365.858127624648 Eh
N 1.7083476876 -0.0014264046 -0.0032640235
C 0.3264368282 0.0081762503 -0.0019800127
C -0.4114285698 1.2114018199 -0.0301742036
C -0.4068816364 -1.1972867212 0.0281821571
C 2.4377454168 1.2221635025 0.2140292351
C 2.4375308046 -1.2281034231 -0.2080103983
C -1.8024972752 1.1960899960 -0.0257661174
C -1.7981943852 -1.1993417542 0.0264732504
C -2.5121663270 -0.0031426394 0.0009686211
H 0.1070215221 2.1705650773 -0.0726659385
H 0.1189888651 -2.1523512293 0.0698985115
H 2.4847043252 1.8683085070 -0.6845802111
H 3.4687782766 0.9865559324 0.5122986386
H 1.9896743795 1.8143509263 1.0284934264
H 3.4675240933 -0.9974651104 -0.5142345526
H 2.4878863597 -1.8635426660 0.6981907009
H 1.9854194979 -1.8293610398 -1.0131562600
H -2.3407777247 2.1482481726 -0.0523229055
H -2.3288172980 -2.1558630272 0.0541509538
H -3.6046097304 -0.0055795163 0.0020171275
20
step=8 E=-365.858253385982 Eh
N 1.6988193938 0.0053062227 -0.0021049039
C 0.3189774995 0.0008430551 -0.0027382993
C -0.4168697555 1.2062872248 -0.0123433643
C -0.4093266843 -1.2088022659 0.0092720925
C 2.4408992313 1.2266488864 0.1884637438
C 2.4275465726 -1.2241400213 -0.1818132425
C -1.8080378807 1.1959808077 -0.0103916096
C -1.8003754930 -1.2002740221 0.0083667553
C -2.5159019762 -0.0042973252 -0.0009030557
H 0.1015357775 2.1660356211 -0.0405814439
H 0.1130852304 -2.1666743213 0.0389166590
H 2.4702558784 1.8652371023 -0.7163992611
H 3.4764128653 0.9860454703 0.4665774556
H 2.0154259908 1.8276431886 1.0087650818
H 3.4631615879 -0.9947296839 -0.4684307432
H 2.4557674418 -1.8529315938 0.7299736910
H 1.9923541351 -1.8294487567 -0.9936351875
H -2.3453784822 2.1494590976 -0.0224850447
H -2.3338360880 -2.1558200160 0.0216913866
H -3.6085302767 -0.0075391811 -0.0003547817
20
step=9 E=-365.858402904398 Eh
N 1.6970613762 0.0027527635 -0.0026545405
C 0.3167448293 -0.0017817401 -0.0020440466
C -0.4149696384 1.2057849541 -0.0047510880
C -0.4142673357 -1.2098789737 0.0023391722
C 2.4333962397 1.2302507061 0.1752678323
C 2.4262747075 -1.2290177048 -0.1704998453
C -1.8063150526 1.1933340533 -0.0028819196
C -1.8055347573 -1.2008669991 0.0015624403
C -2.5193686621 -0.0039633875 -0.0003921022
H 0.1032457912 2.1657711221 -0.0266370677
H 0.1055255471 -2.1691732380 0.0245480100
H 2.4336614252 1.8706290236 -0.7281344280
H 3.4771883941 0.9976998986 0.4266640803
H 2.0240223767 1.8258610307 1.0079977422
H 3.4692789004 -1.0025892169 -0.4302368853
H 2.4285797106 -1.8601961245 0.7394355353
H 2.0103362374 -1.8309576447 -0.9952780321
H -2.3423354938 2.1473872251 -0.0085975069
H -2.3400800306 -2.1557374156 0.0083254218
H -3.6119978887 -0.0042767469 0.0002306330
20
step=10 E=-365.858684096231 Eh
N 1.6921830603 -0.0142762820 -0.0059117424
C 0.3096680354 -0.0120097475 -0.0010807252
C -0.4228409972 1.1942764511 0.0221737709
C -0.4247485546 -1.2169483438 -0.0245620271
C 2.3930903493 1.2416255598 0.1209717212
C 2.4223256394 -1.2549592017 -0.1240563934
C -1.8147036297 1.1994264699 0.0252090533
C -1.8165785651 -1.1913868546 -0.0238374009
C -2.5311485041 0.0048495452 0.0018008363
H 0.0971765516 2.1529469389 0.0270328790
H 0.0843516913 -2.1814632102 -0.0331248185
H 2.2607417131 1.8917714571 -0.7630421162
H 3.4658914518 1.0489088355 0.2452078922
H 2.0596886069 1.8094768375 1.0074565150
H 3.4906673933 -1.0409722737 -0.2533265540
H 2.3073567811 -1.9024425555 0.7645973827
H 2.1002250447 -1.8374182048 -1.0052200069
H -2.3438589372 2.1566531200 0.0438031771
H -2.3565215143 -2.1423598848 -0.0414834678
H -3.6236220364 0.0065078262 0.0032023289
20
step=11 E=-365.858995789674 Eh
N 1.6811057445 -0.0094141994 -0.0069564010
C 0.2992744668 -0.0081594513 -0.0042556467
C -0.4294639378 1.1996651814 0.0505552303
C -0.4376630303 -1.2117908870 -0.0566897130
C 2.3874978677 1.2466640575 0.0639172999
C 2.3990535267 -1.2597648138 -0.0690956015
C -1.8212041245 1.1871657993 0.0519984683
C -1.8293930495 -1.2006565640 -0.0541606638
C -2.5414925434 -0.0043921875 -0.0001075187
H 0.0856038031 2.1603184456 0.0880851676
H 0.0744461759 -2.1737566035 -0.0954629207
H 2.1643311570 1.9015653748 -0.7975103259
H 3.4671840491 1.0541479564 0.0744190034
H 2.1437785299 1.8098980051 0.9837757993
H 3.4774265809 -1.0593582215 -0.0762265696
H 2.1784937012 -1.9146607785 0.7934434249
H 2.1649814936 -1.8290470451 -0.9876510841
H -2.3540359445 2.1415479504 0.0962041278
H -2.3654627793 -2.1534287643 -0.0963012609
H -3.6341120993 -0.0008898536 0.0015918163
20
step=12 E=-365.859065745846 Eh
N 1.6737426804 -0.0045493649 -0.0064969755
C 0.2924891414 -0.0056215076 -0.0049309068
C -0.4400880593 1.1999347701 0.0586507871
C -0.4418158528 -1.2106106311 -0.0653334437
C 2.3927516169 1.2430271227 0.0511038810
C 2.3931840006 -1.2524014272 -0.0560746675
C -1.8314611544 1.1869222988 0.0598181879
C -1.8331738303 -1.2021498933 -0.0635846708
C -2.5470250624 -0.0071588392 -0.0011938513
H 0.0761881046 2.1596648973 0.1066801307
H 0.0751321538 -2.1698831381 -0.1132287407
H 2.1734330202 1.8903422332 -0.8174814195
H 3.4717852507 1.0410254448 0.0564405821
H 2.1567599195 1.8196168462 0.9646251529
H 3.4724120774 -1.0510389185 -0.0540407305
H 2.1676118284 -1.8982156457 0.8122940678
H 2.1646615926 -1.8311314566 -0.9699201887
H -2.3660097788 2.1403373035 0.1109040041
H -2.3671428817 -2.1560561852 -0.1125531343
H -3.6396921670 -0.0065916221 0.0001499153
20
step=13 E=-365.859075494325 Eh
N 1.6675391226 -0.0048141173 -0.0056913177
C 0.2867632623 -0.0054345280 -0.0038102834
C -0.4460963143 1.1998315795 0.0614146136
C -0.4446646733 -1.2115734483 -0.0678123954
C 2.3854802262 1.2438651190 0.0428475781
C 2.3849309131 -1.2539320322 -0.0481000667
C -1.8373445690 1.1885412320 0.0621348638
C -1.8358736942 -1.2017633723 -0.0663569175
C -2.5501611872 -0.0070590504 -0.0014943143
H 0.0718075864 2.1585215330 0.1133798606
H 0.0744427501 -2.1696074073 -0.1211077924
H 2.1494192092 1.8936599669 -0.8197699802
H 3.4648121089 1.0447946889 0.0251012286
H 2.1659019079 1.8186736029 0.9616217117
H 3.4642943432 -1.0555826529 -0.0242567483
H 2.1432392880 -1.9020764350 0.8142376946
H 2.1705118922 -1.8300057009 -0.9672634355
H -2.3723752905 2.1416020823 0.1147280155
H -2.3698748768 -2.1554441153 -0.1180305368
H -3.6427751058 -0.0077875950 -0.0006742650
20
step=14 E=-365.859078743001 Eh
N 1.6645654806 -0.0051618838 -0.0052025416
C 0.2834246574 -0.0058161392 -0.0035937324
C -0.4495755843 1.1995567262 0.0574324021
C -0.4487039430 -1.2117619291 -0.0638604198
C 2.3821563270 1.2435227821 0.0464726614
C 2.3832948982 -1.2533550221 -0.0515620283
C -1.8408111104 1.1892388327 0.0583878432
C -1.8399374910 -1.2015965267 -0.0623540231
C -2.5538462242 -0.0064646772 -0.0012876846
H 0.0690866850 2.1579701608 0.1060526094
H 0.0702927365 -2.1698952916 -0.1142898635
H 2.1496908055 1.8946451197 -0.8163100349
H 3.4615353916 1.0445959803 0.0317324999
H 2.1594769857 1.8171608850 0.9651043953
H 3.4624276640 -1.0534348777 -0.0328638250
H 2.1478649073 -1.9029511078 0.8115310529
H 2.1646862660 -1.8288012368 -0.9700533617
H -2.3756070394 2.1426096393 0.1074183856
H -2.3743714485 -2.1551951766 -0.1107653767
H -3.6464458745 -0.0069043765 -0.0004227746
20
step=15 E=-365.859080001374 Eh
N 1.6552032557 -0.0049351056 -0.0042775154
C 0.2739283089 -0.0053082702 -0.0035624091
C -0.4594518841 1.2001527162 0.0527797527
C -0.4585431326 -1.2113638773 -0.0593883161
C 2.3728168881 1.2435728862 0.0480354825
C 2.3743990617 -1.2527274873 -0.0528973473
C -1.8506229959 1.1895706254 0.0538034047
C -1.8497619466 -1.2014393576 -0.0580198949
C -2.5638448181 -0.0062390777 -0.0014243734
H 0.0593694457 2.1586093115 0.0978696830
H 0.0606910904 -2.1694780318 -0.1060942369
H 2.1429638577 1.8946021440 -0.8156609805
H 3.4521382625 1.0444066090 0.0349337986
H 2.1483857913 1.8176141456 0.9659328061
H 3.4534061126 -1.0520432715 -0.0395453380
H 2.1447087991 -1.9021204262 0.8120319940
H 2.1511263571 -1.8290249795 -0.9696799200
H -2.3856551850 2.1429956723 0.0988027549
H -2.3842316016 -2.1551991662 -0.1026775610
H -3.6564402270 -0.0066661202 -0.0005175482
20
step=16 E=-365.859072997492 Eh
N 1.6027367276 -0.0038229124 0.0000916006
C 0.2210922275 -0.0038902613 -0.0025371217
C -0.5133172709 1.2019188316 0.0354784320
C -0.5126553550 -1.2101624378 -0.0414587396
C 2.3200559491 1.2447854530 0.0454965617
C 2.3233214478 -1.2506033664 -0.0502345590
C -1.9043444158 1.1910696925 0.0356104582
C -1.9038619257 -1.2007305942 -0.0415428156
C -2.6181932168 -0.0050746925 -0.0028637750
H 0.0060021059 2.1604989671 0.0672950666
H 0.0069068384 -2.1684667330 -0.0732456442
H 2.0917029287 1.8921156201 -0.8217450546
H 3.3992731600 1.0456107119 0.0308822363
H 2.0959197685 1.8232022786 0.9605758323
H 3.4018035965 -1.0475643322 -0.0536053278
H 2.1104947624 -1.8956810405 0.8226208794
H 2.0862997136 -1.8332426669 -0.9593595522
H -2.4399980557 2.1447534676 0.0651654225
H -2.4386728721 -2.1548696848 -0.0721914675
H -3.7107854918 -0.0052519920 -0.0024980392
20
step=17 E=-365.859066399994 Eh
N 1.5445315770 -0.0025082361 0.0036006643
C 0.1628392220 -0.0024569691 -0.0015022958
C -0.5720280692 1.2035922239 0.0216547103
C -0.5709921671 -1.2091369830 -0.0264580696
C 2.2618170690 1.2464082222 0.0360213876
C 2.2655047424 -1.2492718424 -0.0414712762
C -1.9629835815 1.1920891764 0.0203023009
C -1.9621880741 -1.2001638515 -0.0282660176
C -2.6768679910 -0.0043854075 -0.0048555380
H -0.0528981898 2.1625443793 0.0430756444
H -0.0511423293 -2.1675919374 -0.0451737697
H 2.0304669425 1.8866546968 -0.8357313682
H 3.3409485894 1.0471462235 0.0179316265
H 2.0412248198 1.8321629758 0.9472551797
H 3.3437233106 -1.0455742412 -0.0569168953
H 2.0622901382 -1.8866301666 0.8394538196
H 2.0197940184 -1.8403819879 -0.9426886770
H -2.4991458029 2.1457718319 0.0377015493
H -2.4969194301 -2.1546428630 -0.0476427727
H -3.7694565961 -0.0046527068 -0.0055234240
20
step=18 E=-365.859078493601 Eh
N 1.5271704506 -0.0018583010 0.0033748450
C 0.1458778884 -0.0020933024 -0.0013495103
C -0.5883861375 1.2042030523 0.0206466830
C -0.5866945297 -1.2093231141 -0.0247871933
C 2.2447287485 1.2473275354 0.0299112035
C 2.2469424374 -1.2496692687 -0.0361947353
C -1.9794386088 1.1920498077 0.0185389464
C -1.9779063342 -1.2004731011 -0.0272119909
C -2.6927846769 -0.0047248186 -0.0056873445
H -0.0701512664 2.1637759834 0.0411299615
H -0.0668778142 -2.1680597580 -0.0411800896
H 2.0116166313 1.8828782268 -0.8444843580
H 3.3239441653 1.0479230626 0.0137377135
H 2.0245008804 1.8373210966 0.9385758616
H 3.3255614251 -1.0475298780 -0.0538531502
H 2.0414052378 -1.8820212732 0.8475797647
H 2.0009900300 -1.8445979765 -0.9348294187
H -2.5156233330 2.1457283089 0.0353729516
H -2.5121634071 -2.1552283877 -0.0456848772
H -3.7853845913 -0.0053329608 -0.0069156036
20
step=19 E=-365.859085521486 Eh
N 1.5175183424 -0.0018863842 0.0020926019
C 0.1365197105 -0.0028594499 -0.0014575503
C -0.5969355461 1.2036262980 0.0210551085
C -0.5953012929 -1.2102850772 -0.0249792595
C 2.2346496134 1.2479315779 0.0256030000
C 2.2364001815 -1.2504001379 -0.0329285322
C -1.9881657078 1.1922711945 0.0187010455
C -1.9865542833 -1.2008241253 -0.0274866202
C -2.7010566724 -0.0047416960 -0.0058842834
H -0.0789052887 2.1633849785 0.0416687918
H -0.0759415407 -2.1694100144 -0.0410998563
H 2.0006040962 1.8804133766 -0.8505264437
H 3.3140851227 1.0491073569 0.0128801470
H 2.0130816051 1.8405125054 0.9323238495
H 3.3153524773 -1.0493194652 -0.0502075336
H 2.0267553016 -1.8795528334 0.8519296895
H 1.9922902031 -1.8474860654 -0.9306755028
H -2.5237302433 2.1463088271 0.0363219883
H -2.5207329698 -2.1556158416 -0.0462567714
H -3.7936634401 -0.0054097937 -0.0073738969
20
step=20 E=-365.859088072191 Eh
N 1.4999248002 -0.0017518700 0.0009320819
C 0.1190077996 -0.0027935364 -0.0017113130
C -0.6143508269 1.2037363066 0.0198560267
C -0.6124350292 -1.2104354369 -0.0238635449
C 2.2171018718 1.2481662796 0.0195246668
C 2.2183626524 -1.2507275888 -0.0279930795
C -2.0056169908 1.1921756175 0.0173116147
C -2.0036841657 -1.2009864253 -0.0263951376
C -2.7182931972 -0.0049382593 -0.0061704514
H -0.0967585484 2.1637715884 0.0395927309
H -0.0932016820 -2.1697018776 -0.0386493039
H 1.9826486942 1.8769183833 -0.8590546164
H 3.2965487359 1.0492252281 0.0089208651
H 1.9951395328 1.8444652675 0.9237603493
H 3.2975018954 -1.0503390630 -0.0439598850
H 2.0054145790 -1.8764955109 0.8583609442
H 1.9764036600 -1.8507804199 -0.9243836387
H -2.5410537982 2.1462881677 0.0344619523
H -2.5375979076 -2.1559332236 -0.0442421249
H -3.8109011080 -0.0057875608 -0.0078846034
20
step=21 E=-365.859089726596 Eh
N 1.4895359442 -0.0019086510 -0.0001895243
C 0.1085925190 -0.0029302667 -0.0021088304
C -0.6247553600 1.2035943754 0.0188247388
C -0.6228926132 -1.2105603067 -0.0233313350
C 2.2066969487 1.2480232629 0.0166689522
C 2.2079932866 -1.2509208466 -0.0258588873
C -2.0160309035 1.1921178856 0.0165087828
C -2.0141446426 -1.2010888437 -0.0255869539
C -2.7287190768 -0.0050030274 -0.0060513454
H -0.1070944807 2.1636083489 0.0377475820
H -0.1036624553 -2.1698273397 -0.0375769473
H 1.9730561209 1.8751940935 -0.8632780081
H 3.2861557015 1.0490928437 0.0078020356
H 1.9838085145 1.8460662602 0.9195287126
H 3.2871622063 -1.0505759770 -0.0398077200
H 1.9929716375 -1.8754459457 0.8608483360
H 1.9680429987 -1.8522599311 -0.9219679931
H -2.5513876115 2.1462797635 0.0332795957
H -2.5480593758 -2.1560479403 -0.0427547486
H -3.8213251874 -0.0058533735 -0.0076844917
20
step=22 E=-365.859090704357 Eh
N 1.4851748939 -0.0021567921 -0.0007848343
C 0.1041455065 -0.0030750249 -0.0023919391
C -0.6292814651 1.2034281423 0.0182738371
C -0.6276011588 -1.2105985687 -0.0232204267
C 2.2022481828 1.2477638635 0.0159278124
C 2.2039124937 -1.2509910128 -0.0253930625
C -2.0205350879 1.1920823413 0.0162035290
C -2.0188503551 -1.2010887303 -0.0252253716
C -2.7333650340 -0.0049744202 -0.0058828094
H -0.1114058223 2.1633143470 0.0367570212
H -0.1083572471 -2.1698171399 -0.0373930638
H 1.9694325287 1.8746979403 -0.8644835281
H 3.2817077915 1.0488913456 0.0077499237
H 1.9787358700 1.8461971120 0.9183557105
H 3.2830155902 -1.0503643293 -0.0379392014
H 1.9882765002 -1.8755095925 0.8612006642
H 1.9650749183 -1.8526026044 -0.9216366791
H -2.5558772604 2.1462537260 0.0327704402
H -2.5528819674 -2.1559887038 -0.0420749407
H -3.8259674656 -0.0057372210 -0.0073730241
