59
0 1 Before single point calculation
F -2.618140454 3.794808507 -0.046281419
C -1.305576069 3.445901108 -0.036980781
N -0.399859629 4.418193882 -0.070943836
C 0.867800025 4.054438297 -0.068303985
C 1.327092111 2.743504224 -0.032613483
C 2.744483774 2.406955762 -0.038724324
C 3.801024438 3.271641829 -0.090893840
C 5.065844703 2.637762750 -0.088350205
C 5.007849873 1.272580085 -0.034421368
C 6.130612882 0.344728224 -0.021385422
C 5.902109175 -1.027962371 0.075192253
C 6.944393622 -1.923180533 0.085206299
C 8.256114968 -1.478334480 -0.000798052
N 9.349243174 -2.416253920 0.006850601
C 9.369885898 -3.683987603 -0.531995563
C 10.616696516 -4.191771656 -0.283604643
N 11.365973286 -3.291810422 0.388081748
C 10.611213861 -2.237075694 0.558682632
C 8.495016746 -0.114166085 -0.097087597
C 7.453317708 0.782928878 -0.107591441
S 3.339547730 0.771746562 0.018470740
C 0.371363755 1.747572165 0.005612200
C -0.970241510 2.082667450 0.004465150
C -2.004049831 1.060666534 0.037416593
C -1.840196824 -0.296291864 0.091248751
C -3.054369391 -1.029869554 0.104040067
C -4.181775550 -0.255313157 0.060044277
C -5.568136512 -0.699576009 0.053229529
C -6.599981505 0.236273006 -0.021776050
C -7.916258442 -0.157156716 -0.035795762
C -8.250199312 -1.503044154 0.024622251
N -9.629877026 -1.916034256 0.005389782
C -10.714968478 -1.242379554 0.521761066
C -11.813325494 -2.017518269 0.263376957
N -11.452307955 -3.140051531 -0.393368595
C -10.154433544 -3.078096361 -0.545041031
C -7.230724611 -2.442651818 0.102127813
C -5.912916023 -2.050851115 0.116540231
S -3.698322800 1.414818136 0.010792850
H 1.586706256 4.855532572 -0.097435625
H 3.686524290 4.343232292 -0.133004174
H 5.991774114 3.189394171 -0.125605613
H 4.887880948 -1.379643397 0.143681418
H 6.755961648 -2.978833747 0.169383953
H 8.557872487 -4.160358926 -1.057230474
H 10.976413034 -5.169613450 -0.573917894
H 10.931696890 -1.345810934 1.078118780
H 9.510834156 0.231163296 -0.175130042
H 7.658425252 1.835425112 -0.188011195
H 0.679430251 0.719416697 0.032911711
H -0.872812272 -0.772816194 0.119181572
H -3.080901528 -2.107625040 0.140749800
H -6.348297630 1.281147239 -0.072192325
H -8.702498728 0.573687264 -0.105242402
H -10.684467672 -0.297075101 1.038763162
H -12.834694194 -1.787409608 0.534968657
H -9.571738872 -3.833854009 -1.050985589
H -7.488040017 -3.485441684 0.160627187
H -5.136944109 -2.792595794 0.178299435
