64
0 1 Before single point calculation
C 10.924405523 1.483870125 0.363841757
N 9.633957728 2.026367908 -0.058061690
C 9.620733547 3.410082167 -0.529731015
C 8.461853340 1.249344404 -0.025058923
C 7.255408673 1.740555587 -0.531893053
C 6.115960000 0.977002413 -0.508521397
C 6.117738937 -0.313717237 0.018824729
C 4.897256067 -1.139922804 0.008698933
C 4.975740203 -2.527463162 -0.106594338
C 3.839264246 -3.301733858 -0.144711056
C 2.600963249 -2.706726929 -0.073398390
C 2.474809683 -1.328533176 0.041465308
C 1.126678814 -0.740338436 0.101088910
C 0.873784631 0.586587704 0.289442203
S -0.811933800 0.854210720 0.291637801
C -1.103410961 -0.844563020 0.028428861
C -2.431376391 -1.405785304 -0.097016155
C -2.576772495 -2.773294716 -0.309660127
C -3.823321698 -3.336165985 -0.447904939
C -4.947063249 -2.544583340 -0.374751366
C -4.849223279 -1.170157273 -0.156308930
C -6.058921002 -0.331167685 -0.084498769
C -7.262310441 -0.841098574 0.406608705
C -8.394234088 -0.066633843 0.456085617
C -8.380945309 1.261132821 0.018870133
N -9.541353129 2.054818648 0.068694925
C -9.510575769 3.476440267 -0.270018934
C -10.831615208 1.499024011 0.473604226
C -7.173673500 1.773344028 -0.464938788
C -6.044492190 0.995329177 -0.513742638
C -3.577486107 -0.598867536 -0.016917083
F -3.465463349 0.732949859 0.212042114
N 0.002474538 -1.533717050 -0.042744660
C 3.631597305 -0.541388724 0.087788271
F 3.534324324 0.800553656 0.228217012
C 7.319849055 -0.801096484 0.536106356
C 8.462453889 -0.040606112 0.514224843
H 10.918047782 1.298058234 1.436083991
H 11.732999339 2.176523234 0.140023023
H 11.126679385 0.551087395 -0.159023322
H 10.581641635 3.891442081 -0.360872984
H 9.404743961 3.438401567 -1.595932121
H 8.861808635 3.979171638 0.003535031
H 7.222474889 2.729842752 -0.951647275
H 5.194765840 1.373341043 -0.898393752
H 5.941204891 -2.994466936 -0.191532842
H 3.918091805 -4.372407853 -0.237835836
H 1.705660557 -3.302577401 -0.109535268
H 1.619808093 1.343621960 0.415446768
H -1.691233133 -3.381939903 -0.368721908
H -3.919788481 -4.395729326 -0.618618457
H -5.918672710 -2.986724653 -0.508419519
H -7.292827395 -1.853391483 0.769993174
H -9.304831846 -0.482881314 0.848129787
H -8.745141718 3.982476169 0.314866070
H -10.465725656 3.951435880 -0.056488092
H -9.293106512 3.603351837 -1.328617076
H -11.634134904 2.217025192 0.318484691
H -10.807978825 1.232503936 1.528519781
H -11.057263029 0.611160678 -0.113975022
H -7.131797597 2.791751746 -0.807094400
H -5.121307135 1.408332967 -0.881280387
H 7.342038066 -1.783611265 0.974049442
H 9.372512162 -0.438340225 0.926234543
