68
0 1 Before single point calculation
C 8.237663490 -2.282626551 -0.973977150
N 7.848516557 -1.297117543 0.042922459
C 8.987317243 -0.643934863 0.686168887
C 6.559058406 -0.736155981 0.102677272
C 6.408659833 0.633349688 0.295142558
C 5.173309600 1.243586455 0.255011984
C 4.003716161 0.529758519 0.024605369
C 2.723193064 1.201133218 -0.005046038
C 2.529843404 2.534750492 -0.007136421
C 1.233559185 3.188550123 -0.016075409
C 1.161943635 4.584197636 -0.025569990
C -0.053460810 5.229600184 -0.031403781
C -1.234598034 4.513730067 -0.027495318
F -2.428618914 5.157592889 -0.033121633
C -1.199358572 3.111573162 -0.017132487
C -2.455694068 2.397516803 -0.009956660
C -2.590569721 1.057445208 0.023732099
C -3.842263204 0.334895786 0.024440813
C -5.044539861 1.000719101 -0.179153781
C -6.251653207 0.336741716 -0.221311160
C -6.337451924 -1.043587486 -0.070011992
N -7.574948992 -1.691097253 -0.242263336
C -7.718483648 -2.928756823 -1.019052425
C -8.835656004 -0.975239374 -0.051439529
C -5.128947728 -1.766965217 0.222712655
C -5.157542927 -3.134457345 0.554919425
C -4.012693606 -3.824940151 0.828856402
C -2.782759161 -3.173654498 0.800635096
C -2.718274621 -1.838819347 0.524173322
C -3.881399293 -1.086766049 0.243015252
C 0.037934751 2.473217724 -0.012245388
C 4.100009087 -0.896370433 -0.141145803
C 2.964042335 -1.710060333 -0.354548046
C 3.066193638 -3.068729568 -0.432909896
C 4.304857739 -3.687885365 -0.290918436
C 5.427810502 -2.934553631 -0.106703842
C 5.370686215 -1.528628283 -0.066983567
H 7.424717463 -2.450656778 -1.677804311
H 8.510278756 -3.225838137 -0.504110708
H 9.095094021 -1.918380812 -1.537136644
H 9.780963958 -1.365785989 0.870382700
H 9.376944110 0.148959590 0.050517120
H 8.686330344 -0.219351901 1.642172221
H 7.288093154 1.235810738 0.438399554
H 5.120008133 2.305650526 0.413199978
H 1.851769497 0.577887697 -0.013233981
H 3.385585839 3.183633699 -0.015854260
H 2.074253335 5.155682236 -0.027712709
H -0.106165178 6.303817163 -0.038346769
H -3.333828892 3.015936549 -0.014638550
H -1.692264916 0.474102832 0.042253142
H -5.038217952 2.063499225 -0.340706630
H -7.149532959 0.891935457 -0.427436419
H -8.436973973 -2.782718031 -1.823711133
H -6.769049571 -3.212959397 -1.468840008
H -8.074056885 -3.737285032 -0.383000646
H -9.642403763 -1.678999478 0.145837321
H -9.083032583 -0.401182666 -0.942544863
H -8.759357057 -0.299596585 0.798600106
H -6.106104947 -3.632311150 0.636946735
H -4.058773097 -4.872494286 1.078335028
H -1.881726906 -3.724472655 1.016893162
H -1.758569648 -1.356542713 0.540689135
H 0.068865612 1.401907475 -0.005161938
H 1.994816396 -1.259992409 -0.464047522
H 2.184587239 -3.668384946 -0.591443569
H 4.373452505 -4.763080886 -0.322761171
H 6.371064984 -3.423725471 0.052304533
