59
0 1 Before single point calculation
C 11.759294285 0.173605204 -0.086788227
N 10.708182783 -0.842491821 -0.108217247
C 11.137185454 -2.237244252 -0.201983918
C 9.345736777 -0.493585116 -0.062769341
C 8.941150698 0.845801715 -0.056673710
C 7.611925125 1.187337001 -0.019834812
C 6.617083011 0.205478660 0.013751400
C 5.202452357 0.539533205 0.042819961
C 4.649744238 1.793225089 0.036434712
C 3.236618489 1.801061744 0.057057131
C 2.671667253 0.554483081 0.080373459
C 1.263131537 0.271007190 0.093315637
C 0.705502894 -0.979274279 0.139980316
C -0.705760272 -0.979378807 0.130269068
C -1.262851702 0.270826142 0.075616059
C -2.671072760 0.554162557 0.042165934
C -3.234988176 1.799595068 -0.025034929
C -4.647991040 1.792020333 -0.052710424
C -5.201705457 0.539603984 -0.007363347
C -6.616624272 0.205893729 -0.023717892
C -7.611035909 1.186911066 -0.084905953
C -8.940693473 0.845441007 -0.101587430
C -9.346219235 -0.492988194 -0.057393390
N -10.709367731 -0.841809896 -0.074361538
C -11.143646146 -2.233299051 0.041404323
C -11.756349073 0.170135159 -0.206690560
C -8.350470747 -1.473372510 0.004337952
C -7.022232294 -1.130147739 0.020484778
S -3.929498948 -0.654700328 0.076460249
S 0.000361100 1.477439965 0.046221782
S 3.929353353 -0.655777972 0.086639383
C 7.021853292 -1.131512473 0.011452210
C 8.349674389 -1.474826570 -0.025805019
H 11.707514881 0.782898725 -0.987307689
H 12.746182410 -0.282234043 -0.038440908
H 11.641762376 0.814661123 0.785010927
H 10.665337928 -2.716542366 -1.057804024
H 12.215557826 -2.309788255 -0.328072872
H 10.861817253 -2.773969198 0.704033631
H 9.686440632 1.620342405 -0.088214696
H 7.329004142 2.224971864 -0.018880112
H 5.235602642 2.698229922 0.012263449
H 2.646486854 2.704172326 0.050177703
H 1.300377412 -1.878462496 0.175362771
H -1.300881822 -1.878673066 0.157407329
H -2.644115444 2.701682572 -0.057205861
H -5.233026843 2.696171403 -0.107620365
H -7.327456846 2.223880783 -0.118930258
H -9.686017725 1.619541379 -0.144498167
H -12.228009874 -2.303923065 0.098674382
H -10.729137388 -2.680264434 0.943301226
H -10.809180932 -2.801802356 -0.824636160
H -11.587325418 0.768091037 -1.100536276
H -11.756568097 0.822807894 0.664599791
H -12.739396715 -0.289088750 -0.290035308
H -8.631571411 -2.510889787 0.034280693
H -6.267762040 -1.895835005 0.066829581
H 6.267137773 -1.897791456 0.038010620
H 8.630434911 -2.512817346 -0.022780572
