70
0 1 Before single point calculation
C 9.748935035 -2.710841948 -0.311164085
N 9.331477028 -1.359422066 0.058984379
C 10.284496229 -0.675632854 0.942646363
C 7.988826417 -0.953784648 -0.062200101
C 6.972561371 -1.904201682 -0.038953752
C 5.641521031 -1.546855060 -0.025808100
C 5.232835576 -0.217596274 -0.042969089
C 3.830540141 0.122186602 0.027742741
C 2.804444013 -0.741890211 -0.127436238
C 1.402932950 -0.397800416 -0.024962402
C 0.427486475 -1.363200224 -0.316050545
C -0.908837620 -1.067869206 -0.235666227
C -1.356157277 0.203161943 0.146890000
C -2.754723128 0.537857662 0.188224762
C -3.781765499 -0.324658955 0.010571622
C -5.179396337 0.031138975 0.024161851
C -5.570518015 1.366106702 0.047968782
C -6.896112540 1.742375653 0.028438864
C -7.925405454 0.808124353 -0.023454464
N -9.258250468 1.241551781 -0.163973590
C -10.195165881 0.616998049 -1.106573430
C -9.664032598 2.581505979 0.256937272
C -7.575341620 -0.585764032 0.028238379
C -8.562128812 -1.582862114 0.146783500
C -8.235048328 -2.907344993 0.188082605
C -6.899829885 -3.296790686 0.130710245
C -5.911794157 -2.357175075 0.059173280
C -6.208549964 -0.976405019 0.022328273
C -0.381461866 1.188636886 0.469975101
N -0.742123617 2.454675911 0.905520662
C 0.970095158 0.866165738 0.364448015
C 6.244676749 0.802518875 -0.130387947
C 5.923236880 2.174531330 -0.230638699
C 6.892523379 3.123532659 -0.385739703
C 8.231398607 2.751087286 -0.468200613
C 8.581742024 1.435358539 -0.370602439
C 7.616006837 0.431469336 -0.167148407
H 9.235055160 -3.028390111 -1.216846523
H 9.521798459 -3.410114970 0.491723510
H 10.820435920 -2.735297147 -0.502511621
H 9.791634547 0.120478256 1.497746331
H 10.694967685 -1.379398383 1.664838138
H 11.106325329 -0.257434428 0.364070369
H 7.237994782 -2.944634773 0.025437359
H 4.901207576 -2.323811318 0.041024008
H 3.588045670 1.147330369 0.227153435
H 3.022942782 -1.765168618 -0.371016421
H 0.743777271 -2.347449720 -0.617135128
H -1.625848022 -1.827880530 -0.489062297
H -2.988526299 1.566776999 0.376523237
H -3.539378268 -1.355743580 -0.152210359
H -4.821396177 2.137012433 0.046717984
H -7.144758345 2.788557735 0.002180618
H -11.034297848 0.175528537 -0.571788785
H -10.582479375 1.363452934 -1.798007147
H -9.695382246 -0.151820870 -1.693087642
H -9.398200504 3.313559367 -0.503814282
H -10.740734537 2.617526784 0.414662112
H -9.174783292 2.845982801 1.192849180
H -9.590753553 -1.289957010 0.250244467
H -9.008052824 -3.653534993 0.275544076
H -6.647667590 -4.344489407 0.161455938
H -4.889075484 -2.685706970 0.047183397
H -0.043568400 3.079939137 1.283167782
H -1.637319384 2.639304242 1.337348119
H 1.686911580 1.624830496 0.612713462
H 4.895121344 2.485875674 -0.207721712
H 6.622021135 4.164040693 -0.464764396
H 8.988583946 3.502950200 -0.621185172
H 9.610855279 1.152388603 -0.494884969
