56
0 1 Before single point calculation
N -7.576667874 2.167324999 -0.075435019
N 7.576982279 2.168711812 -0.072640244
C -6.364541714 1.458841000 -0.034470518
C 6.364147572 1.460625865 -0.046522577
C -3.932103513 0.034432080 0.050472836
C 3.930692980 0.037011573 0.018552149
C -1.218023396 -2.687555549 0.040405402
C 1.217716813 -2.686581045 0.037068959
C -6.324626930 0.078170449 -0.261410681
C 5.146194577 2.118370697 0.160500911
C -5.154258582 2.108702243 0.233625971
C 6.331409597 0.072553064 -0.224137760
C -0.000499178 -2.010125465 -0.000889388
C -5.141325591 -0.615675643 -0.220001986
C 3.962745623 1.425172931 0.190488585
C -3.971265087 1.415144778 0.273435280
C 5.147598044 -0.620979459 -0.192115743
C -2.660860153 -0.662781428 0.100691598
C 2.658829895 -0.659431793 0.062505738
C -2.496122094 -1.992891233 -0.002934722
C 2.495628281 -1.991879006 -0.007483482
C -1.194290749 -4.082400396 0.114603067
C 1.194922713 -4.081453396 0.112120655
C 0.000615682 -4.767025330 0.150705297
C -7.631306696 3.605832759 0.182917524
C -8.842430596 1.501405010 -0.381841404
C 8.850321502 1.497689935 -0.332192907
C 7.629138161 3.606709863 0.189324486
H -7.239538040 -0.446465326 -0.471840209
H 5.139944329 3.185299338 0.295028725
H -5.153633305 3.169643439 0.409352177
H 7.252821268 -0.458655485 -0.383825202
H -0.001696749 -0.941325724 -0.088628566
H -5.145612701 -1.674655972 -0.406613436
H 3.036862137 1.950885128 0.351409139
H -3.051442095 1.934615559 0.481846787
H 5.158074337 -1.686430889 -0.336825648
H -1.792423180 -0.048009439 0.250572024
H 1.787928276 -0.040606711 0.177295629
H -3.366559045 -2.613162966 -0.111660426
H 3.367691761 -2.614247486 -0.088417294
H -2.125861406 -4.621392792 0.146072825
H 2.126863918 -4.619945419 0.141421885
H 0.001095339 -5.843268026 0.210016934
H -7.044565133 4.141443915 -0.561388633
H -8.653774552 3.975958198 0.140275654
H -7.234490909 3.822778176 1.173178058
H -9.668971227 2.209384599 -0.391755503
H -8.788781922 1.030531167 -1.361992692
H -9.055496166 0.741231689 0.367826384
H 9.069502575 0.791259093 0.466684322
H 8.804815056 0.962343980 -1.279050113
H 9.668427201 2.213103206 -0.389443612
H 8.654773784 3.970564110 0.190186576
H 7.076849921 4.146637399 -0.577794587
H 7.192997540 3.824716334 1.162671106
