62
0 1 Before single point calculation
N 1.200517530 0.899967795 -0.106263248
C 0.605963346 -0.344968002 -0.041597621
C -0.784621958 -0.416545198 -0.020927499
C -1.468318565 -1.621000232 0.042503518
C -2.922587573 -1.621963255 0.062566719
C -3.753287130 -2.705328761 0.149075978
C -5.129386785 -2.378053981 0.148314064
C -5.386733480 -1.036732841 0.060582374
C -6.692181365 -0.391742824 0.038125391
C -6.785121564 0.994795117 -0.088923699
C -8.005302646 1.626546476 -0.111286448
C -9.180561680 0.894912273 -0.006938302
N -10.460214739 1.556471913 -0.029713604
C -10.758838807 2.824260856 0.419647171
C -12.095556098 3.014343329 0.190072585
N -12.635268648 1.918655979 -0.384430482
C -11.661968062 1.053673548 -0.513272608
C -9.099194911 -0.485625102 0.120555272
C -7.879396868 -1.119799630 0.142515883
S -3.877988530 -0.166779310 -0.023656439
C -0.715924431 -2.798940666 0.085284718
C 0.656733424 -2.757599706 0.065705623
C 1.360045956 -1.550912927 0.003173068
C 2.813860262 -1.551093344 -0.004679969
C 3.638811711 -2.648657409 0.015959260
C 5.023825980 -2.349335140 0.013584651
C 5.312401709 -1.011338970 -0.009425922
C 6.625951449 -0.386074988 -0.011428968
C 6.735657553 1.005181076 -0.011672020
C 7.963504461 1.621430331 -0.008460792
C 9.129728014 0.868492360 -0.006306951
N 10.417256840 1.515221540 0.003396852
C 10.753025093 2.704149616 0.613067294
C 12.081512344 2.912984346 0.353786100
N 12.580001015 1.904568824 -0.392429607
C 11.589384442 1.074793935 -0.598622270
C 9.032405828 -0.516942042 -0.008648021
C 7.804516529 -1.135639983 -0.010695238
S 3.812056869 -0.121762938 -0.036732022
H 0.693802225 1.763101646 0.038940240
H 2.200743764 1.010613959 0.006413861
H -1.347293760 0.497034864 -0.058224298
H -3.395341474 -3.720557987 0.214740151
H -5.904175769 -3.125625243 0.210348435
H -5.878695853 1.568221596 -0.171401279
H -8.063278298 2.695376812 -0.219638234
H -10.066006544 3.513012417 0.874942012
H -12.662244888 3.904508555 0.426701504
H -11.783144645 0.075909568 -0.955852567
H -10.008109618 -1.053820847 0.212708174
H -7.837326670 -2.189487010 0.244914992
H -1.221912958 -3.746709356 0.133690878
H 1.205262747 -3.681520812 0.102764137
H 3.272422543 -3.662731209 0.034593379
H 5.783156136 -3.115157781 0.032350920
H 5.835759149 1.594766224 -0.014566492
H 8.034985897 2.694756834 -0.016541212
H 10.089532910 3.326823417 1.190850337
H 12.670835257 3.755695633 0.688567170
H 11.676226802 0.167596217 -1.178364477
H 9.935602707 -1.101299200 0.002116683
H 7.748674590 -2.209697237 -0.010766629
