55
0 1 Before single point calculation
C 11.663591057 2.902407878 0.394067489
C 10.857454948 1.823624583 0.641173159
N 9.646161482 2.095373848 0.044064440
C 8.469452552 1.264773584 0.026291640
C 8.580886116 -0.118955957 -0.007246712
C 7.459951500 -0.914528639 -0.026175122
C 6.182097563 -0.350814362 -0.010968039
C 4.978167631 -1.166330416 -0.030166082
C 4.902656967 -2.533096460 -0.074335698
C 3.584633897 -3.038021095 -0.081491595
C 2.617271173 -2.069456642 -0.042787130
C 1.208777470 -2.309210921 -0.040849178
N 0.662664473 -3.502817473 -0.067160025
N -0.662911379 -3.501981752 -0.061463759
C -1.207384601 -2.307709802 -0.030942700
C -2.615639346 -2.066596087 -0.022856508
C -3.583460809 -3.035157891 -0.045085703
C -4.901232809 -2.529901440 -0.034395851
C -4.976389199 -1.162768759 -0.003340299
C -6.180843981 -0.347896118 0.011470202
C -7.457565454 -0.911911963 -0.040829780
C -8.579429660 -0.117615178 -0.029522479
C -8.470025848 1.265243172 0.032885333
N -9.647990380 2.094388242 0.038246948
C -10.870030134 1.815116096 0.609397576
C -11.674031519 2.893599999 0.354165386
N -11.000766038 3.825491243 -0.353266518
C -9.796533812 3.349033118 -0.538766496
C -7.205180098 1.834846516 0.086247079
C -6.082790539 1.042939436 0.075547275
S -3.364507843 -0.494512370 0.015893901
S 0.001574948 -1.059265085 -0.003352872
S 3.366686977 -0.498027472 0.003051151
C 6.082029003 1.040851394 0.024376268
C 7.203407723 1.833947711 0.042252909
C 9.802941010 3.346335444 -0.538824532
N 11.001867212 3.827567930 -0.332627043
H 12.686616060 3.022781542 0.723788842
H 11.099332722 0.936458378 1.203678863
H 9.561555787 -0.560737871 -0.028500659
H 7.566494378 -1.984201320 -0.053896192
H 5.770114642 -3.172979007 -0.102515157
H 3.347038187 -4.090076568 -0.114763124
H -3.346345537 -4.087559815 -0.070001213
H -5.768861565 -3.170018656 -0.049119130
H -7.562436890 -1.980766964 -0.094336806
H -9.559021371 -0.559313082 -0.080662142
H -11.120774832 0.922595041 1.159496652
H -12.703947187 3.008619949 0.663805894
H -9.022963589 3.866896043 -1.086809198
H -7.116779340 2.905388163 0.145403043
H -5.105887670 1.491114306 0.118222579
H 5.104105202 1.488863132 0.038537973
H 7.112882839 2.905246605 0.079099549
H 9.039010854 3.858630677 -1.105279475
