56
0 1 Before single point calculation
C 4.390320856 -3.940824589 -1.287237635
N 5.274744787 -3.192070398 -0.395208942
C 6.268961119 -3.962843528 0.350653564
C 5.151664111 -1.802830839 -0.236310776
C 5.979879213 -1.098584114 0.646012180
C 5.855234084 0.257710762 0.805383972
C 4.888391162 0.983518429 0.100681174
C 4.794976579 2.427418574 0.269941657
C 3.687943654 3.194332548 0.149458986
C 2.308848069 2.738300394 0.037865869
C 1.367335304 3.518006055 -0.639218348
C 0.056929491 3.122073427 -0.725082482
C -0.385640284 1.935003266 -0.132849652
C -1.776048894 1.560002659 -0.247988246
C -2.329329553 0.447177657 0.264647840
C -3.721382858 0.066700325 0.158677596
C -4.149387558 -1.142159595 0.717945605
C -5.460760940 -1.535798909 0.640552613
C -6.418264574 -0.739507320 0.000866671
N -7.761896248 -1.139152814 -0.076187550
C -8.785046408 -0.276904994 -0.666268396
C -8.205691593 -2.436041745 0.433737133
C -5.989583373 0.470198667 -0.558261049
C -4.677411362 0.862865686 -0.482457650
C 0.550699435 1.152159991 0.566567608
F 0.187178486 -0.008224991 1.165268101
C 1.862127194 1.563147591 0.646760911
C 4.076826144 0.283091054 -0.798935518
C 4.199458174 -1.073144445 -0.958103804
H 4.519501390 -3.600153537 -2.312867960
H 3.353060831 -3.795908924 -0.990922777
H 4.606217584 -5.006707316 -1.253409336
H 7.268783749 -3.590568479 0.135352574
H 6.235349068 -5.016227274 0.080254966
H 6.079723199 -3.879597899 1.419258789
H 6.724632187 -1.632335462 1.208824026
H 6.500577081 0.781754276 1.489586188
H 5.727102239 2.926837086 0.483685810
H 3.817335137 4.265039346 0.173242651
H 1.686421553 4.436400094 -1.101450346
H -0.652532233 3.733067818 -1.256590225
H -2.403962103 2.240024691 -0.793806000
H -1.693233868 -0.228528089 0.804392057
H -3.429136717 -1.768148147 1.217066051
H -5.761991591 -2.468014904 1.083961134
H -9.778894841 -0.701400553 -0.538376833
H -8.599833173 -0.153154773 -1.731808394
H -8.772812375 0.700076066 -0.186303732
H -7.621489493 -3.235271040 -0.019221950
H -9.254071861 -2.612535166 0.201177183
H -8.083669700 -2.473609342 1.514896663
H -6.702937241 1.098937631 -1.060369287
H -4.382161974 1.798933960 -0.921293958
H 2.549731909 0.957188535 1.206081184
H 3.351695719 0.827678709 -1.378335185
H 3.555359675 -1.585940557 -1.649734087
