54
0 1 Before single point calculation
F -2.299306663 3.675167360 -0.126953694
C -1.138715777 2.979728261 -0.141976493
C 0.059674170 3.667760930 -0.155976957
C 1.262732097 3.001098204 -0.168139297
C 1.303183210 1.606675003 -0.167498848
C 2.553314762 0.860408735 -0.178506236
C 3.768890796 1.383726623 0.040874037
C 5.017844718 0.638215457 0.032467768
C 6.189461097 1.250801618 0.481284341
C 7.385177644 0.573330152 0.489542862
C 7.457607341 -0.739946313 0.045936719
N 8.710373485 -1.449731711 0.054913529
C 9.127643757 -2.426455425 -0.823595924
C 10.381009945 -2.802054687 -0.421559685
N 10.755138620 -2.100918829 0.670264883
C 9.761374970 -1.297680242 0.950492481
C 6.299642089 -1.355375681 -0.409341674
C 5.101410303 -0.681494070 -0.416904045
C 0.093313603 0.918897378 -0.161275001
C -1.133445584 1.576258981 -0.144770795
C -2.359100111 0.798409785 -0.123136527
C -3.598084420 1.305997084 -0.073137447
C -4.831774566 0.539786230 -0.036101154
C -6.051968768 1.211343428 0.060234602
C -7.239199916 0.520837186 0.105425681
C -7.253380939 -0.866275313 0.054342511
N -8.497435090 -1.589281676 0.108281087
C -9.648829129 -1.229876157 0.775391173
C -10.559635313 -2.225174486 0.544146327
N -10.020945210 -3.183540841 -0.240055468
C -8.795689745 -2.803907304 -0.496728975
C -6.045032684 -1.542881094 -0.044835801
C -4.855408930 -0.855413899 -0.089040308
H 0.028170829 4.742870658 -0.158537931
H 2.179118210 3.563003296 -0.192665842
H 2.471663111 -0.196587954 -0.352503657
H 3.844015645 2.431248459 0.267777159
H 6.146790855 2.268931519 0.828253520
H 8.282718768 1.057779358 0.831428542
H 8.569085083 -2.797534171 -1.667531775
H 11.004860871 -3.548778621 -0.893696162
H 9.759949803 -0.613614222 1.786336191
H 6.352126506 -2.374480969 -0.749596978
H 4.220666120 -1.175781108 -0.785375925
H 0.107051515 -0.156301455 -0.161108320
H -2.240542475 -0.269297203 -0.139561714
H -3.705309855 2.374054024 -0.050970323
H -6.054468363 2.287121077 0.100195515
H -8.173761583 1.049426307 0.172028716
H -9.781959153 -0.342807289 1.373027142
H -11.571201444 -2.264616400 0.924744021
H -8.111091053 -3.364730904 -1.115954605
H -6.052517337 -2.618235583 -0.075062058
H -3.933313441 -1.402735501 -0.165451463
