53
0 1 Before single point calculation
C -2.417659911 -1.330213072 0.019592730
C -2.390234520 -2.669770730 0.015758279
C -1.144938015 -3.406540696 0.041221158
C -1.175558930 -4.796550117 0.057145766
C 0.000002043 -5.500470326 0.080075692
C 1.176117844 -4.797117863 0.084920865
C 1.146579683 -3.407098096 0.067846027
C 2.392564295 -2.671042480 0.066716900
C 2.420620514 -1.331522293 0.057680807
C 3.608469622 -0.496988719 0.042576162
C 4.899979732 -1.027889006 0.020878788
C 6.000308465 -0.204245501 -0.004624898
C 5.854011286 1.176553116 -0.008203310
N 7.008777986 2.035868941 -0.047349770
C 8.219022763 1.786790892 -0.659070644
C 8.999060744 2.890687338 -0.442724356
N 8.323595943 3.811046787 0.279079648
C 7.141325629 3.301200429 0.511426331
C 4.573412489 1.712599543 0.017384509
C 3.470933388 0.892569502 0.041759531
N 0.001074701 -2.713180303 0.047704871
C -3.605509523 -0.495685017 -0.003476139
C -3.472984589 0.890324889 0.102061395
C -4.576290076 1.709488171 0.088169079
C -5.852532624 1.176361344 -0.034440624
N -7.008621541 2.034715408 -0.044088545
C -8.201104209 1.832035040 -0.705835529
C -8.994337101 2.909860989 -0.417653091
N -8.344338590 3.769223874 0.396780556
C -7.164802034 3.247468990 0.616082023
C -5.993315858 -0.200583495 -0.145523941
C -4.892243757 -1.023541084 -0.129993514
H -1.470714830 -0.821756492 0.048444368
H -3.306543293 -3.229439158 0.000329519
H -2.121971970 -5.309408050 0.051940632
H -0.000420352 -6.578081162 0.093244275
H 2.122149359 -5.310455730 0.101116879
H 3.308479937 -3.231485313 0.069617488
H 1.473396229 -0.822808083 0.056314031
H 5.037695121 -2.094179942 0.022631042
H 6.991708274 -0.621910246 -0.014093682
H 8.476393683 0.898122369 -1.211929215
H 10.012707096 3.032644670 -0.791870114
H 6.372577458 3.803148058 1.080321885
H 4.455776115 2.781863637 0.004701729
H 2.483185570 1.320370761 0.057195894
H -2.488697244 1.315823624 0.197551639
H -4.462278694 2.776641387 0.162842041
H -8.438871505 0.990946055 -1.336484137
H -10.000467006 3.074880902 -0.778206749
H -6.415407678 3.702313925 1.247235040
H -6.981501471 -0.616704903 -0.233886187
H -5.025075525 -2.086702102 -0.220306360
