55
0 1 Before single point calculation
C 11.571237780 0.800684616 0.599496283
N 10.579370653 -0.242203486 0.360353970
C 10.833656064 -1.596592851 0.228292932
C 9.656818949 -2.259790563 0.033215701
C 8.612111617 -1.296687697 0.042050962
C 7.221706793 -1.408259791 -0.099719294
C 6.437077895 -0.269035630 -0.035666773
C 4.987823342 -0.338011763 -0.155994573
C 4.229967306 -1.464995109 -0.329439120
C 2.840056294 -1.223136386 -0.385060805
C 2.498833142 0.097291859 -0.258838510
C 1.168551941 0.621132372 -0.255124870
N 0.872185418 1.897201001 -0.175474538
N -0.427717169 2.162182738 -0.157166226
C -1.199344567 1.101588119 -0.216209919
C -2.627652842 1.144107593 -0.172446861
C -3.381876315 2.283876096 -0.093140779
C -4.773289204 2.048621263 -0.035193632
C -5.118654628 0.724144693 -0.068219738
C -6.460106664 0.162589710 -0.001347978
C -6.630999085 -1.244315693 -0.089051174
C -7.859173519 -1.836447306 -0.015533647
C -8.985403562 -1.020494814 0.152784760
C -8.844915555 0.377550352 0.240106171
C -10.146446752 0.921876843 0.410795986
C -11.031777562 -0.116815036 0.426057302
N -10.343233922 -1.307655405 0.270164214
C -10.928325743 -2.643920644 0.240301208
C -7.575143288 0.967440758 0.161433969
S -3.675189818 -0.248276093 -0.198317749
S -0.265417672 -0.359594389 -0.343342200
S 3.941104424 1.057758856 -0.085688520
C 7.062686057 0.989266033 0.167833061
C 8.415043855 1.117400085 0.308283849
C 9.206269199 -0.037230163 0.247434757
H 12.572199939 0.374322781 0.614033660
H 11.520792704 1.549622126 -0.188214480
H 11.380842668 1.281023849 1.557228528
H 11.814639635 -2.038389479 0.278088459
H 9.531551570 -3.320748287 -0.100446048
H 6.782917198 -2.375888221 -0.250856827
H 4.650089932 -2.455027661 -0.405593639
H 2.104430903 -2.002714241 -0.506744827
H -2.939823067 3.267845504 -0.066363313
H -5.494739881 2.846434222 0.036902369
H -5.753130723 -1.852902465 -0.214784704
H -7.975465472 -2.903353615 -0.081460030
H -10.381193642 1.967827538 0.512279147
H -12.100207070 -0.043509457 0.542262736
H -12.006804094 -2.587757488 0.373655838
H -10.717239460 -3.120454973 -0.714930245
H -10.507881142 -3.251429331 1.039189476
H -7.482515979 2.034071963 0.236590722
H 6.437069821 1.863045176 0.214474951
H 8.877062570 2.075700581 0.465243447
