57
0 1 Before single point calculation
C 9.646458224 3.807306227 -0.117358928
N 9.710797673 2.347767153 -0.057107763
C 11.041684091 1.742158900 -0.053685783
C 8.544737126 1.561103960 -0.027043940
C 7.275650190 2.149158655 -0.019295601
C 6.140728342 1.378764779 0.003307670
C 6.210509569 -0.016386640 0.019531620
C 4.993018845 -0.808741808 0.032799792
C 4.898843736 -2.175832351 0.036519787
C 3.574225986 -2.663202040 0.038957596
C 2.618513400 -1.682069594 0.038842403
C 1.208713504 -1.914437377 0.032226720
N 0.663616519 -3.109279470 0.005469428
N -0.662202707 -3.109907018 -0.007657152
C -1.208806236 -1.915609582 0.011271612
C -2.618723087 -1.684228036 -0.004201249
C -3.573416002 -2.664590368 -0.063465760
C -4.898106928 -2.177419767 -0.072945005
C -4.993150562 -0.811458912 -0.018000761
C -6.210553475 -0.018860760 -0.014760081
C -7.476221826 -0.602633771 -0.125483840
C -8.612467909 0.167362179 -0.123341744
C -8.544051794 1.559980076 -0.008917101
N -9.710055819 2.347690444 -0.006759271
C -11.029932515 1.761973094 -0.235107266
C -9.658088681 3.791372259 0.216961424
C -7.277498265 2.142962659 0.102193183
C -6.142817645 1.371902880 0.098357541
S -3.389712213 -0.120626721 0.048336122
S -0.000852849 -0.663204651 0.054905817
S 3.388389997 -0.116950813 0.043320003
C 7.478649253 -0.605186733 0.015336492
C 8.615192078 0.163989361 -0.007264249
H 10.641536015 4.243630545 -0.173708171
H 9.154385834 4.195892480 0.772245358
H 9.089600263 4.120048487 -0.998638187
H 11.820344343 2.501994097 -0.043977772
H 11.174670791 1.129628567 -0.943475335
H 11.166247970 1.119439553 0.830193065
H 7.189955433 3.220900769 -0.030979549
H 5.171534196 1.845833780 0.006773601
H 5.757294695 -2.828298663 0.032411040
H 3.323242583 -3.712658753 0.037080929
H -3.321575177 -3.713107146 -0.103156047
H -5.756053225 -2.829077357 -0.117395965
H -7.557946906 -1.671139861 -0.216158380
H -9.574159234 -0.306855338 -0.204391569
H -11.026620918 1.179945080 -1.154775406
H -11.299121626 1.113690436 0.596611000
H -11.791016374 2.533908210 -0.328884748
H -9.099241340 4.009296974 1.125089252
H -9.175176929 4.282130759 -0.625974610
H -10.657253231 4.206952668 0.330548874
H -7.193364430 3.211836774 0.183141768
H -5.175391333 1.834985424 0.182002728
H 7.562332425 -1.677284886 0.028454859
H 9.578224797 -0.314289934 -0.013300478
