58
0 1 Before single point calculation
C 10.375196230 -2.886156224 0.018311351
N 9.897265500 -1.530511811 -0.099055907
C 10.840289351 -0.458447312 0.106290949
C 8.549416359 -1.273076799 -0.047388472
C 7.602142238 -2.308609616 -0.065200613
C 6.251430650 -2.047483501 -0.052326608
C 5.760218711 -0.739200043 -0.017222559
C 4.345401837 -0.458700400 -0.005446663
C 3.287218749 -1.334087115 0.006030430
C 2.033095693 -0.709582082 0.012011751
C 2.111623609 0.657928655 0.004453529
C 1.020589375 1.588967397 0.005833793
C 1.124188556 2.957603091 -0.003216900
S -0.425232084 3.694001625 -0.000955123
C -1.131164634 2.067252023 0.012649400
C -2.537728254 1.884392409 0.016104360
C -3.526797784 2.838989437 0.000519340
C -4.813269593 2.295812378 0.002569261
C -4.834242871 0.918458763 0.020799808
C -5.972621154 0.034595780 0.020668320
C -5.808126342 -1.352997205 0.072690821
C -6.881489433 -2.210785795 0.063460820
C -8.198706052 -1.726725052 0.000772260
N -9.272383042 -2.573967327 -0.011506398
C -10.603268451 -2.068372248 -0.236131952
C -9.089313615 -3.993035227 0.160867627
C -8.364218768 -0.332829003 -0.046645782
C -7.284039199 0.518033816 -0.037181913
S -3.211328579 0.284871631 0.036577800
N -0.256010664 1.122347798 0.014850343
S 3.764996567 1.186705794 -0.008742599
C 6.702716704 0.291784911 0.007664719
C 8.054306909 0.039573040 -0.004247251
H 11.460606629 -2.894340087 -0.050869962
H 9.983951414 -3.499719349 -0.796521338
H 10.086947018 -3.344872679 0.971886016
H 11.852940507 -0.850890986 0.048305191
H 10.712025285 0.021235700 1.083849729
H 10.730700833 0.300678172 -0.671819433
H 7.919195579 -3.338235103 -0.088617882
H 5.563693461 -2.878842652 -0.068468371
H 3.404241453 -2.402774631 0.011908530
H 1.090957651 -1.226851209 0.021199353
H 2.015313146 3.551316317 -0.012114973
H -3.315212894 3.894171549 -0.012972567
H -5.700121961 2.902975118 -0.007301661
H -4.807585072 -1.758899572 0.115798913
H -6.690592182 -3.270759679 0.094147274
H -10.633632997 -1.432886449 -1.125320893
H -10.964313241 -1.487875381 0.620327498
H -11.285736961 -2.899941591 -0.395850021
H -10.058036910 -4.470844334 0.288732490
H -8.491864623 -4.201047105 1.052240180
H -8.594141587 -4.446543310 -0.705411865
H -9.351953213 0.096804465 -0.082427925
H -7.463304983 1.581302454 -0.075047194
H 6.357976052 1.315695439 0.040502238
H 8.729166115 0.879064160 0.019902561
58
step=1 E=-2401.196387554242 Eh
C 10.3751963235 -2.8861560409 0.0183113519
N 9.8972649724 -1.5305117828 -0.0990559095
C 10.8402887454 -0.4584473002 0.1062909421
C 8.5494167964 -1.2730767801 -0.0473884701
C 7.6021422751 -2.3086095193 -0.0652006121
C 6.2514306737 -2.0474834685 -0.0523266090
C 5.7602184139 -0.7392000522 -0.0172225592
C 4.3454019835 -0.4587004004 -0.0054466623
C 3.2872187823 -1.3340871713 0.0060304294
C 2.0330955000 -0.7095820990 0.0120117512
C 2.1116234719 0.6579286722 0.0044535289
C 1.0205893727 1.5889673699 0.0058337925
C 1.1241885331 2.9576029602 -0.0032169000
S -0.4252320691 3.6940017600 -0.0009551225
C -1.1311645017 2.0672518992 0.0126493991
C -2.5377282388 1.8843924385 0.0161043601
C -3.5267978642 2.8389894124 0.0005193398
C -4.8132694001 2.2958123315 0.0025692612
C -4.8342430108 0.9184587319 0.0207998077
C -5.9726209122 0.0345957804 0.0206683177
C -5.8081266525 -1.3529971284 0.0726908192
C -6.8814894238 -2.2107858307 0.0634608203
C -8.1987055524 -1.7267249723 0.0007722601
N -9.2723830624 -2.5739671092 -0.0115063975
C -10.6032685634 -2.0683722309 -0.2361319475
C -9.0893137247 -3.9930351345 0.1608676178
C -8.3642189863 -0.3328289914 -0.0466457805
C -7.2840390949 0.5180338078 -0.0371819118
S -3.2113284518 0.2848716399 0.0365777978
N -0.2560106482 1.1223478114 0.0148503424
S 3.7649965397 1.1867056505 -0.0087426002
C 6.7027162854 0.2917849221 0.0076647191
C 8.0543068925 0.0395730413 -0.0042472504
H 11.4606065337 -2.8943400416 -0.0508699587
H 9.9839512323 -3.4997193318 -0.7965213003
H 10.0869468873 -3.3448726500 0.9718859607
H 11.8529405657 -0.8508910096 0.0483051903
H 10.7120243176 0.0212357016 1.0838496983
H 10.7307005954 0.3006781684 -0.6718194629
H 7.9191954514 -3.3382350797 -0.0886178784
H 5.5636933010 -2.8788425790 -0.0684683713
H 3.4042412794 -2.4027745613 0.0119085299
H 1.0909576595 -1.2268511822 0.0211993524
H 2.0153130501 3.5513162425 -0.0121149725
H -3.3152126324 3.8941714910 -0.0129725677
H -5.7001219224 2.9029749913 -0.0073016612
H -4.8075849521 -1.7588995129 0.1157989124
H -6.6905917506 -3.2707595506 0.0941472723
H -10.6336330269 -1.4328863981 -1.1253208983
H -10.9643138763 -1.4878753400 0.6203274828
H -11.2857374266 -2.8999415200 -0.3958499913
H -10.0580371160 -4.4708444045 0.2887325115
H -8.4918639433 -4.2010471712 1.0522401284
H -8.5941406847 -4.4465433116 -0.7054118704
H -9.3519527937 0.0968044616 -0.0824279286
H -7.4633050031 1.5813024126 -0.0750471924
H 6.3579760442 1.3156954215 0.0405022395
H 8.7291662033 0.8790641291 0.0199025613
58
step=2 E=-2401.204453070976 Eh
C 10.3470296973 -2.9921621934 0.0157260371
N 9.9460358512 -1.6078092206 -0.0989890114
C 10.9103571151 -0.5494553465 0.1025110271
C 8.6037387918 -1.2987465235 -0.0487817829
C 7.6163057625 -2.3071310894 -0.0644368080
C 6.2679804625 -1.9866175923 -0.0501020630
C 5.8167803351 -0.6597944799 -0.0152196696
C 4.3825296454 -0.3566251099 -0.0029549567
C 3.3212366364 -1.2303115323 0.0093817708
C 2.0545394673 -0.5929741195 0.0150581532
C 2.1407267847 0.7746075259 0.0065390468
C 1.0344379679 1.7225322454 0.0070175034
C 1.1263513405 3.0915946943 -0.0030820527
S -0.4387126385 3.7964815633 -0.0020181597
C -1.1389538576 2.1825567973 0.0122785162
C -2.5683884802 1.9668175504 0.0151180068
C -3.5976786061 2.8786737815 -0.0019929439
C -4.8776706586 2.2803955868 0.0006868282
C -4.8352855007 0.9028863403 0.0210445165
C -5.9620287635 -0.0331632143 0.0224943179
C -5.8258946030 -1.4298242581 0.0766438745
C -6.9107343330 -2.2911947145 0.0676194414
C -8.2303564764 -1.7942229338 0.0022760968
N -9.3188604824 -2.6317680600 -0.0100681530
C -10.6337334831 -2.0764279768 -0.2371083578
C -9.1566778794 -4.0576998291 0.1622419006
C -8.3827392410 -0.3916300591 -0.0482341535
C -7.2792007140 0.4454597011 -0.0380357793
S -3.1888198029 0.3512981099 0.0370803178
N -0.2497360306 1.2423061320 0.0159869005
S 3.7969160756 1.2822872583 -0.0073164536
C 6.8020254204 0.3384653017 0.0086099567
C 8.1551456516 0.0384736034 -0.0046981682
H 11.4377355533 -3.0597748926 -0.0510359733
H 9.9266462265 -3.5940701736 -0.8036735570
H 10.0315287832 -3.4457018114 0.9720442106
H 11.9215059489 -0.9656359968 0.0483781712
H 10.7935107443 -0.0545835507 1.0826620552
H 10.8246722889 0.2184197151 -0.6808900209
H 7.8985090042 -3.3576763665 -0.0875443521
H 5.5433020474 -2.8006776199 -0.0653642996
H 3.4409887790 -2.3115854987 0.0159964472
H 1.0968377728 -1.1081034035 0.0247313509
H 2.0227883647 3.7042971185 -0.0122020660
H -3.4278871129 3.9544754398 -0.0171425410
H -5.8025571384 2.8525853394 -0.0101319793
H -4.8241679746 -1.8598396133 0.1230127672
H -6.7255563459 -3.3628577197 0.1009662358
H -10.6463800992 -1.4332005179 -1.1305729797
H -10.9877512577 -1.4787962348 0.6203111776
H -11.3484916458 -2.8892385732 -0.4017495380
H -10.1400197388 -4.5218319918 0.2900941257
H -8.5607498958 -4.2848682708 1.0593092237
H -8.6648415079 -4.5313354657 -0.7048883398
H -9.3744426390 0.0546919178 -0.0868559172
H -7.4535182339 1.5206535574 -0.0784387140
H 6.4993130966 1.3862406586 0.0420552546
H 8.8677395978 0.8602196455 0.0190211616
58
step=3 E=-2401.203730378706 Eh
C 10.3720752875 -3.0092813842 0.0098985599
N 9.9126382167 -1.6443785531 -0.1025610938
C 10.8888670187 -0.6027639175 0.1184755367
C 8.5599071193 -1.3539789387 -0.0600227714
C 7.5689710411 -2.3640853249 -0.0837455440
C 6.2137400357 -2.0527604070 -0.0679256360
C 5.7511733890 -0.7285358004 -0.0211175312
C 4.3066579063 -0.4103343524 -0.0070047611
C 3.2305601929 -1.2665190754 -0.0019637653
C 1.9681489225 -0.6007168635 0.0071669991
C 2.0921671310 0.7632571128 0.0090561818
C 0.9929634973 1.7393981286 0.0141994496
C 1.1002541360 3.1060372460 0.0137238774
S -0.4552915988 3.8291320056 0.0144096447
C -1.1643625735 2.2389388313 0.0155064996
C -2.6149619453 2.0580268439 0.0123658586
C -3.5994256035 3.0151392739 -0.0039716798
C -4.9001674015 2.4397223413 -0.0066430259
C -4.8999167292 1.0606464320 0.0083941063
C -6.0419304788 0.1233567376 0.0070729895
C -5.7908305955 -1.2562564328 0.0657756229
C -6.8351926320 -2.1733187122 0.0610875693
C -8.1835235028 -1.7511139188 -0.0022826642
N -9.2027994861 -2.6784555652 -0.0053103558
C -10.5819308061 -2.2968521880 -0.2130280078
C -8.8776624878 -4.0754110510 0.1684729093
C -8.4266785665 -0.3571663407 -0.0584535694
C -7.3779764991 0.5545559733 -0.0543086513
S -3.2785343096 0.4659826453 0.0242462339
N -0.3005036550 1.2703292708 0.0163015319
S 3.7537057521 1.2322289630 0.0003707937
C 6.7357698823 0.2702826360 0.0138800695
C 8.0965409534 -0.0194008612 -0.0010441485
H 11.4704666173 -3.0266041365 -0.0528107451
H 9.9855387522 -3.6359241446 -0.8138722534
H 10.0744340716 -3.4863694291 0.9661298958
H 11.8986834032 -1.0358073889 0.0602397014
H 10.7798050831 -0.1162805509 1.1092485969
H 10.8231110442 0.1856919983 -0.6529776386
H 7.8559643440 -3.4187299920 -0.1157949464
H 5.4933132592 -2.8790987822 -0.0923696993
H 3.3337275104 -2.3568568230 -0.0034143547
H 0.9904957657 -1.0938498016 0.0117915404
H 2.0121125632 3.7112189144 0.0114787186
H -3.3958841512 4.0932887757 -0.0141192267
H -5.8157442776 3.0393789089 -0.0166993546
H -4.7583540221 -1.6297395272 0.1132341708
H -6.5918585743 -3.2394948803 0.0985587559
H -10.6991633354 -1.6695380162 -1.1159345027
H -11.0048724642 -1.7356508817 0.6440704612
H -11.1919320243 -3.2009036066 -0.3571843336
H -9.8060388576 -4.6482143792 0.3086753423
H -8.2487281562 -4.2373742679 1.0632665302
H -8.3407054873 -4.5038209161 -0.7017930109
H -9.4498389453 0.0269431406 -0.0967022217
H -7.6139212447 1.6247333106 -0.0985506830
H 6.4336138778 1.3251334871 0.0582103782
H 8.8049639084 0.8130435417 0.0329897335
58
step=4 E=-2401.205495832086 Eh
C 10.3689716243 -2.9898380188 0.0099019654
N 9.9297763457 -1.6184375898 -0.1028993707
C 10.8992563474 -0.5699010835 0.1138401951
C 8.5802179997 -1.3235123440 -0.0598410984
C 7.5969199989 -2.3386065096 -0.0813010583
C 6.2424084056 -2.0314105256 -0.0651102593
C 5.7786389666 -0.7083561897 -0.0201271180
C 4.3343955065 -0.3999777214 -0.0057939166
C 3.2673845338 -1.2664152041 0.0011328390
C 2.0016039090 -0.6107934986 0.0097517549
C 2.1138641963 0.7541084216 0.0094160403
C 1.0084057344 1.7201725734 0.0134504299
C 1.1086456313 3.0867835753 0.0108152793
S -0.4514547848 3.7998777812 0.0109099813
C -1.1498167113 2.2055741858 0.0146161074
C -2.5971093746 2.0123961658 0.0120764287
C -3.5922324584 2.9580984038 -0.0054958626
C -4.8883924731 2.3753339321 -0.0071157112
C -4.8709334419 0.9973920697 0.0099978276
C -6.0124894852 0.0608418317 0.0100066932
C -5.8009325106 -1.3246462466 0.0698600394
C -6.8612469627 -2.2218254044 0.0652807400
C -8.2008132601 -1.7748750691 0.0004961515
N -9.2566098649 -2.6599325925 -0.0040389104
C -10.6060799314 -2.1899816071 -0.2165934982
C -9.0097395383 -4.0725475437 0.1688362384
C -8.4071084023 -0.3768700200 -0.0569718593
C -7.3398335930 0.5113255620 -0.0526818333
S -3.2446032810 0.4144243399 0.0264924669
N -0.2807511315 1.2423256340 0.0166695791
S 3.7705169706 1.2385915682 -0.0008161487
C 6.7565524549 0.2957539338 0.0127107429
C 8.1163979515 0.0095884200 -0.0027064801
H 11.4660403219 -3.0241493014 -0.0519115838
H 9.9738197992 -3.6104567297 -0.8136466835
H 10.0636335082 -3.4622872755 0.9653559388
H 11.9111442116 -0.9959129760 0.0582255556
H 10.7866286887 -0.0796803549 1.1017269486
H 10.8289234908 0.2142715347 -0.6607639094
H 7.8888085318 -3.3911257742 -0.1118327649
H 5.5244816229 -2.8586169613 -0.0877379788
H 3.3798682887 -2.3545554500 0.0013750301
H 1.0292225856 -1.1111925835 0.0156028013
H 2.0157415442 3.6962010421 0.0073566439
H -3.3988893628 4.0365725156 -0.0173120803
H -5.8087463658 2.9656639913 -0.0179120649
H -4.7793060751 -1.7222713944 0.1185944926
H -6.6374909871 -3.2907745839 0.1039158706
H -10.6782320887 -1.5545754696 -1.1179542555
H -10.9952691130 -1.6048243450 0.6396842785
H -11.2721383549 -3.0516846869 -0.3656357661
H -9.9680750629 -4.5934292106 0.3047904475
H -8.3944931660 -4.2702069056 1.0650436371
H -8.4943878329 -4.5283742769 -0.6996967898
H -9.4204552934 0.0303850108 -0.0966241470
H -7.5553122049 1.5845999242 -0.0981720501
H 6.4506377665 1.3485514658 0.0554954764
H 8.8229194106 0.8424342969 0.0293912832
58
step=5 E=-2401.205058044236 Eh
C 10.3064290622 -3.0196403376 -0.0017658037
N 9.8995171983 -1.6395928922 -0.1141590324
C 10.8616058395 -0.5818370203 0.0809452859
C 8.5553352409 -1.3320580060 -0.0692258042
C 7.5623770000 -2.3346776744 -0.0775252852
C 6.2151329165 -2.0097856290 -0.0544941077
C 5.7745174104 -0.6807492986 -0.0132684726
C 4.3370255854 -0.3673437114 0.0081200676
C 3.2730155706 -1.2355708061 0.0267208702
C 2.0109734140 -0.5817987764 0.0375694264
C 2.1191201982 0.7832791310 0.0281577565
C 1.0184819738 1.7466899158 0.0302354050
C 1.1251388779 3.1121422757 0.0200406198
S -0.4362140363 3.8248121418 0.0187808127
C -1.1399532605 2.2328839571 0.0304368816
C -2.5793477879 2.0180748169 0.0267689620
C -3.6040406900 2.9308634806 0.0010333583
C -4.8882129122 2.3295993115 -0.0026620567
C -4.8316972137 0.9545087857 0.0213720049
C -5.9575639380 0.0061612822 0.0187117622
C -5.7999678739 -1.3841467382 0.0940337252
C -6.8726123267 -2.2627068646 0.0846374529
C -8.1909692661 -1.7701703356 -0.0027568429
N -9.2443508050 -2.6545843753 -0.0121069424
C -10.5906216296 -2.1887267718 -0.2351863675
C -8.9950208208 -4.0637947689 0.1678063001
C -8.3731021379 -0.3719162534 -0.0764887058
C -7.2748120052 0.4731277018 -0.0649428967
S -3.1913331776 0.4062930453 0.0492425355
N -0.2697305016 1.2715185890 0.0375724100
S 3.7748313144 1.2722757514 0.0053590425
C 6.7593223231 0.3142884150 0.0085376065
C 8.1111717373 0.0050948533 -0.0151366339
H 11.3994424544 -3.0823282271 -0.0693087530
H 9.8915668677 -3.6298116260 -0.8206931623
H 9.9947495114 -3.4819665034 0.9542364729
H 11.8752562699 -0.9965475535 0.0210765514
H 10.7530248763 -0.0815539932 1.0619597626
H 10.7753865887 0.1906320707 -0.7009426390
H 7.8404642042 -3.3878950954 -0.1048273399
H 5.4867327672 -2.8236284095 -0.0686103429
H 3.3863672565 -2.3196773638 0.0332343077
H 1.0429470925 -1.0817699826 0.0514362307
H 2.0302046576 3.7162619360 0.0122108521
H -3.4385967272 4.0095222192 -0.0167726208
H -5.8188241314 2.8966439070 -0.0207325223
H -4.7943544446 -1.8079690483 0.1612730316
H -6.6793919330 -3.3346144878 0.1368447042
H -10.6584090302 -1.5662133881 -1.1433603197
H -10.9796535690 -1.5932691220 0.6112780468
H -11.2557248718 -3.0499433191 -0.3748394927
H -9.9497690653 -4.5895149358 0.2924801094
H -8.3912027880 -4.2548175777 1.0707857770
H -8.4667416815 -4.5165299640 -0.6918430113
H -9.3714226458 0.0614822441 -0.1346219184
H -7.4596282296 1.5478258772 -0.1241927604
H 6.4686686653 1.3680339485 0.0483630705
H 8.8292805949 0.8244483442 0.0073532064
58
step=6 E=-2401.205911265009 Eh
C 10.3189956252 -3.0091496523 -0.0021571356
N 9.9024229365 -1.6325358521 -0.1153479318
C 10.8700282837 -0.5803639796 0.0795629922
C 8.5566039260 -1.3270953011 -0.0701320380
C 7.5685308120 -2.3350817177 -0.0782652751
C 6.2191907686 -2.0169144247 -0.0549229502
C 5.7700563759 -0.6905105071 -0.0135056080
C 4.3313101753 -0.3783714549 0.0083289507
C 3.2650692622 -1.2442511003 0.0274254060
C 2.0030887449 -0.5892538332 0.0384690270
C 2.1137309870 0.7755475728 0.0287021767
C 1.0139745075 1.7410143332 0.0306557109
C 1.1199378904 3.1067483867 0.0201879236
S -0.4407692655 3.8212349387 0.0186132560
C -1.1435110284 2.2304240742 0.0306129012
C -2.5841974939 2.0198191752 0.0267696300
C -3.6016877231 2.9402204199 0.0003613166
C -4.8873293654 2.3410327849 -0.0033808249
C -4.8410216295 0.9650544484 0.0211830570
C -5.9654009583 0.0143979644 0.0188260111
C -5.7830167053 -1.3722532754 0.0965308253
C -6.8471521809 -2.2618506264 0.0881892202
C -8.1772800695 -1.7977074422 0.0003812314
N -9.2431860450 -2.6688399715 -0.0101585067
C -10.5742990921 -2.1627914613 -0.2366670657
C -9.0289005192 -4.0840214466 0.1688832056
C -8.3693818593 -0.4008605244 -0.0753681245
C -7.2882782412 0.4667027133 -0.0657863221
S -3.2036034086 0.4105643904 0.0496519924
N -0.2747863544 1.2666604797 0.0380352610
S 3.7703492250 1.2613752406 0.0053803526
C 6.7513460769 0.3080681132 0.0081121879
C 8.1059442516 0.0083265713 -0.0157847901
H 11.4126624891 -3.0643476335 -0.0712049602
H 9.9072410658 -3.6232406193 -0.8199267914
H 10.0118952674 -3.4728217741 0.9548508171
H 11.8816667745 -1.0005648572 0.0175143472
H 10.7657802784 -0.0806254219 1.0614993549
H 10.7868936520 0.1937362800 -0.7011982066
H 7.8520929274 -3.3870532084 -0.1057613707
H 5.4954682376 -2.8351109486 -0.0690077889
H 3.3767458592 -2.3287377922 0.0341471763
H 1.0340082892 -1.0878700486 0.0526746893
H 2.0254702828 3.7107283914 0.0122778124
H -3.4312934354 4.0185486409 -0.0178459553
H -5.8151294474 2.9127237731 -0.0219048387
H -4.7709290622 -1.7819974990 0.1644717867
H -6.6359056147 -3.3297974997 0.1420687041
H -10.6208501180 -1.5369723604 -1.1442923501
H -10.9480937807 -1.5568258607 0.6094940332
H -11.2648666354 -3.0033707087 -0.3796269705
H -9.9969663789 -4.5861439741 0.2898035280
H -8.4331016771 -4.2917970077 1.0736295839
H -8.5092242346 -4.5490855448 -0.6896393949
H -9.3740997407 0.0179945632 -0.1344061075
H -7.4904598043 1.5384845045 -0.1270353867
H 6.4552856035 1.3605044321 0.0480957279
H 8.8190718528 0.8321801930 0.0066403841
58
step=7 E=-2401.205914282110 Eh
C 10.3390376279 -2.9927763097 -0.0088154973
N 9.9270336842 -1.6133497247 -0.1097476189
C 10.8955152430 -0.5618954050 0.0878041763
C 8.5809044189 -1.3073301099 -0.0667596393
C 7.6033224089 -2.3259684281 -0.0853743925
C 6.2502869660 -2.0194166912 -0.0641919527
C 5.7886348645 -0.6967787687 -0.0151323849
C 4.3461274323 -0.3931971843 0.0045588006
C 3.2851335325 -1.2663327968 0.0168718841
C 2.0185612428 -0.6172388180 0.0282117620
C 2.1227224766 0.7482209438 0.0250216959
C 1.0146160246 1.7070287426 0.0286947081
C 1.1101808247 3.0739027867 0.0269268347
S -0.4536063472 3.7809728563 0.0239373284
C -1.1421170040 2.1864149116 0.0256491249
C -2.5856019257 1.9830529792 0.0195448113
C -3.5881528429 2.9202056721 -0.0031611397
C -4.8803464106 2.3321741469 -0.0070720342
C -4.8488630016 0.9552112404 0.0125866679
C -5.9891758424 0.0209297894 0.0112572760
C -5.8069464569 -1.3664539449 0.0925815111
C -6.8773492329 -2.2498895968 0.0881933635
C -8.2075304453 -1.7842128584 0.0022708532
N -9.2795387034 -2.6497864970 -0.0021955674
C -10.6187214731 -2.1582237724 -0.2194303374
C -9.0597848450 -4.0641892013 0.1786368861
C -8.3887278623 -0.3851553945 -0.0784472846
C -7.3090391146 0.4858732680 -0.0740567649
S -3.2194848854 0.3796554563 0.0331051595
N -0.2712874394 1.2235060002 0.0286362455
S 3.7762461509 1.2430080906 0.0075046199
C 6.7624336240 0.3096926544 0.0161274151
C 8.1214493477 0.0255418600 -0.0048987291
H 11.4332096635 -3.0514068400 -0.0790585339
H 9.9247546764 -3.5999529401 -0.8316626739
H 10.0310143893 -3.4647206117 0.9448020957
H 11.9074014748 -0.9826886505 0.0205299381
H 10.7950419756 -0.0663956919 1.0732224202
H 10.8116629323 0.2176248526 -0.6886436887
H 7.8979755281 -3.3759399141 -0.1197388303
H 5.5334560065 -2.8450436065 -0.0864053601
H 3.4033918812 -2.3515689097 0.0189513558
H 1.0505547389 -1.1210696797 0.0379613419
H 2.0130273173 3.6847468895 0.0262738030
H -3.4043845212 3.9979660240 -0.0167006506
H -5.8033652710 2.9142680377 -0.0207451195
H -4.7953788448 -1.7808857953 0.1607544506
H -6.6691832825 -3.3192764048 0.1449034928
H -10.6834114931 -1.5419682319 -1.1333891362
H -10.9903763879 -1.5467981744 0.6246687003
H -11.3030604536 -3.0076190304 -0.3456988523
H -10.0270198751 -4.5694886506 0.3001113289
H -8.4631854632 -4.2701562317 1.0842991561
H -8.5383136617 -4.5298378241 -0.6794976604
H -9.3927799546 0.0369774206 -0.1380985872
H -7.5078451135 1.5595019240 -0.1392224077
H 6.4563051066 1.3602492233 0.0623743390
H 8.8275746724 0.8565184992 0.0254083576
58
step=8 E=-2401.206035075655 Eh
C 10.3713229688 -2.9802363024 -0.0188702770
N 9.9292457666 -1.6099952961 -0.1132787076
C 10.8871986062 -0.5497855988 0.0861740092
C 8.5787282703 -1.3221735519 -0.0709099741
C 7.5972418206 -2.3375421868 -0.0926691797
C 6.2439225674 -2.0323605270 -0.0703535435
C 5.7818845897 -0.7101204811 -0.0166680045
C 4.3397174724 -0.4055241452 0.0043591434
C 3.2769789085 -1.2764881587 0.0168121415
C 2.0112957549 -0.6259183185 0.0296279338
C 2.1176833347 0.7394148005 0.0272498319
C 1.0119031490 1.7006505037 0.0319048508
C 1.1140457265 3.0669260359 0.0324775549
S -0.4480986825 3.7779292415 0.0296789807
C -1.1437800985 2.1868100849 0.0281319707
C -2.5875368035 1.9847085769 0.0210310158
C -3.5922031465 2.9195250844 -0.0018831827
C -4.8840157356 2.3306386774 -0.0066944309
C -4.8516984476 0.9538557951 0.0126659301
C -5.9899889822 0.0169451625 0.0112265367
C -5.8096747477 -1.3699310797 0.1030634531
C -6.8806706087 -2.2526930897 0.0997729639
C -8.2096040016 -1.7860905295 0.0049519217
N -9.2802660139 -2.6525665685 0.0026769745
C -10.6137836665 -2.1474815568 -0.2174826050
C -9.0662755562 -4.0674845472 0.1880609309
C -8.3918500542 -0.3879975488 -0.0879470518
C -7.3098382316 0.4799004978 -0.0844978247
S -3.2210528143 0.3812277602 0.0338248629
N -0.2757512311 1.2213245835 0.0302613045
S 3.7721009747 1.2313607820 0.0085750715
C 6.7558509459 0.2957823744 0.0179024655
C 8.1141420741 0.0084227568 -0.0042388266
H 11.4665550737 -3.0139926443 -0.0895668652
H 9.9707887540 -3.5927483185 -0.8444393944
H 10.0743780401 -3.4632920602 0.9326125169
H 11.9032934593 -0.9594671018 0.0134524082
H 10.7848827079 -0.0601551205 1.0743002936
H 10.7923378783 0.2324877022 -0.6862113363
H 7.8899031931 -3.3875832065 -0.1308515401
H 5.5275294749 -2.8582429025 -0.0955473679
H 3.3935123880 -2.3618218411 0.0182297680
H 1.0425753906 -1.1282027639 0.0397623105
H 2.0191370705 3.6742902781 0.0336733875
H -3.4103065114 3.9974691541 -0.0148133661
H -5.8073684838 2.9120653903 -0.0199868976
H -4.7991038621 -1.7848681160 0.1797542945
H -6.6733517126 -3.3217881161 0.1652278415
H -10.6732627369 -1.5387407182 -1.1369219710
H -10.9767094989 -1.5238242795 0.6213704666
H -11.3080740105 -2.9898955800 -0.3344683707
H -10.0356813244 -4.5700507208 0.3025309738
H -8.4775976399 -4.2742137496 1.0987818180
H -8.5393947607 -4.5361995272 -0.6650215551
H -9.3955078773 0.0339567281 -0.1571415958
H -7.5072665201 1.5529489562 -0.1596864893
H 6.4512559618 1.3465654877 0.0680543828
H 8.8197158170 0.8396736006 0.0289888882
58
step=9 E=-2401.206066815541 Eh
C 10.3367322911 -3.0021479640 -0.0196500568
N 9.9121682161 -1.6265035918 -0.1137932051
C 10.8808156525 -0.5759964472 0.0845644458
C 8.5652273752 -1.3246730471 -0.0709892913
C 7.5808055056 -2.3366154073 -0.0926976051
C 6.2294560917 -2.0242806093 -0.0702063984
C 5.7742014956 -0.6998845239 -0.0164661917
C 4.3333043199 -0.3912203847 0.0046413258
C 3.2686455786 -1.2595753766 0.0173223841
C 2.0046314042 -0.6064984048 0.0301652948
C 2.1136974969 0.7585971813 0.0276063426
C 1.0104504416 1.7221265316 0.0322708166
C 1.1143313619 3.0881498523 0.0327442410
S -0.4473309548 3.8004683738 0.0300846301
C -1.1459194707 2.2102794064 0.0285955951
C -2.5889242504 2.0048458186 0.0215187100
C -3.5985641363 2.9340836595 -0.0014404627
C -4.8877803659 2.3401760607 -0.0062681615
C -4.8504329574 0.9636730085 0.0131589492
C -5.9821357478 0.0194242140 0.0117368593
C -5.7951381434 -1.3661465638 0.1042598719
C -6.8609200176 -2.2548962771 0.1009070089
C -8.1919309096 -1.7947875896 0.0052132936
N -9.2573043184 -2.6672414465 0.0029053902
C -10.5923585902 -2.1674120363 -0.2178175872
C -9.0365018974 -4.0808612412 0.1885935757
C -8.3827790685 -0.3981329018 -0.0884787636
C -7.3044901441 0.4739135557 -0.0847763087
S -3.2168317417 0.3991119793 0.0345555714
N -0.2779157184 1.2448792795 0.0307748756
S 3.7692912987 1.2469936901 0.0086742920
C 6.7522591217 0.3019874946 0.0180200336
C 8.1090553126 0.0087996867 -0.0042616907
H 11.4312109517 -3.0500011488 -0.0906256248
H 9.9280578881 -3.6091908861 -0.8451060065
H 10.0338897487 -3.4813246795 0.9317288394
H 11.8924905351 -0.9958968063 0.0115870305
H 10.7839331555 -0.0849059837 1.0723105888
H 10.7934490290 0.2065792063 -0.6881254729
H 7.8691208126 -3.3877510294 -0.1309234945
H 5.5089680398 -2.8462086657 -0.0953164671
H 3.3827607697 -2.3448307620 0.0188954717
H 1.0351888625 -1.1066657059 0.0404632957
H 2.0198011926 3.6942542929 0.0338237398
H -3.4217817593 4.0124945447 -0.0144508593
H -5.8130757678 2.9178382585 -0.0196125154
H -4.7826139312 -1.7753812802 0.1816441543
H -6.6480577755 -3.3226515407 0.1669823775
H -10.6537226170 -1.5593069170 -1.1374137759
H -10.9574470819 -1.5449005286 0.6206906098
H -11.2833944205 -3.0122837736 -0.3345596073
H -10.0033128151 -4.5881627809 0.3023486581
H -8.4474845738 -4.2845252374 1.0996188629
H -8.5068009712 -4.5466891978 -0.6640463801
H -9.3884377009 0.0185149152 -0.1584287491
H -7.5073586217 1.5455180596 -0.1606149991
H 6.4521975434 1.3537557288 0.0682020233
H 8.8187739055 0.8361694196 0.0288574185
58
step=10 E=-2401.206109028720 Eh
C 10.3210187351 -3.0167634747 -0.0350853948
N 9.9010003590 -1.6392243977 -0.1180990669
C 10.8692128943 -0.5879214888 0.0766062844
C 8.5548186754 -1.3354890734 -0.0754370086
C 7.5671756340 -2.3441874353 -0.1017428611
C 6.2169606128 -2.0278273348 -0.0786312201
C 5.7654064049 -0.7025837214 -0.0192490318
C 4.3258266932 -0.3894066138 0.0031128763
C 3.2585154214 -1.2543883420 0.0174423115
C 1.9966121039 -0.5979832718 0.0315918455
C 2.1091784081 0.7667961664 0.0286262411
C 1.0086719249 1.7329002594 0.0349958071
C 1.1120335805 3.0990090878 0.0372580441
S -0.4494497764 3.8120816920 0.0380058574
C -1.1483056743 2.2221365046 0.0334671867
C -2.5905017873 2.0134598226 0.0267132349
C -3.6037395213 2.9387770271 0.0050576723
C -4.8909810164 2.3411576891 -0.0004482392
C -4.8490284328 0.9648336906 0.0173833275
C -5.9761980780 0.0159519619 0.0147256996
C -5.7866522120 -1.3678419823 0.1234622328
C -6.8492801429 -2.2601810780 0.1203587724
C -8.1809658697 -1.8057012439 0.0088533237
N -9.2457266535 -2.6789714950 0.0076998724
C -10.5818437572 -2.1846883504 -0.2170060239
C -9.0228450777 -4.0907581530 0.2015341764
C -8.3746504413 -0.4107892996 -0.1021307338
C -7.2990251314 0.4642726696 -0.0986726390
S -3.2134490207 0.4057218915 0.0399827565
N -0.2799516310 1.2568833605 0.0340363494
S 3.7662697950 1.2504686646 0.0067853954
C 6.7467249974 0.2956508007 0.0200849488
C 8.1026057126 -0.0011619519 -0.0029141373
H 11.4150007456 -3.0680083834 -0.1081271996
H 9.9087667656 -3.6161640000 -0.8641680919
H 10.0181129119 -3.5018451958 0.9130471567
H 11.8810043779 -1.0057987951 -0.0029856396
H 10.7772286183 -0.0988410320 1.0656359664
H 10.7759642353 0.1958351640 -0.6939857389
H 7.8522829368 -3.3957547952 -0.1444798225
H 5.4941848739 -2.8471896213 -0.1080618677
H 3.3694426408 -2.3396269406 0.0197666795
H 1.0260874825 -1.0953041203 0.0434211309
H 2.0172414695 3.7047966006 0.0384993912
H -3.4309024023 4.0175017550 -0.0067036366
H -5.8178717104 2.9157332807 -0.0123281652
H -4.7738730284 -1.7727905994 0.2148927712
H -6.6333119160 -3.3260807417 0.2002667291
H -10.6471849359 -1.5921788170 -1.1463828487
H -10.9435688489 -1.5484530406 0.6122869536
H -11.2726180866 -3.0317904136 -0.3162737453
H -9.9893252978 -4.6006909815 0.3040707609
H -8.4450104640 -4.2895350040 1.1206628084
H -8.4808550035 -4.5571147370 -0.6427102955
H -9.3804356457 0.0020354290 -0.1870014698
H -7.5043436318 1.5339423900 -0.1897074625
H 6.4499823642 1.3477919887 0.0752006476
H 8.8146738529 0.8237424290 0.0345284226
58
step=11 E=-2401.206219521303 Eh
C 10.3038328802 -3.0364833316 -0.0766328589
N 9.8892805046 -1.6561797095 -0.1257278926
C 10.8662736622 -0.6142520672 0.0715964746
C 8.5448843152 -1.3456582551 -0.0852959991
C 7.5544956290 -2.3510519185 -0.1338853033
C 6.2055872186 -2.0297185557 -0.1118219945
C 5.7581135980 -0.7042901020 -0.0309365832
C 4.3193705740 -0.3888639650 -0.0083872682
C 3.2518943975 -1.2537959505 0.0025038564
C 1.9904886667 -0.5973062928 0.0195066171
C 2.1028019310 0.7675032824 0.0222698639
C 1.0014299015 1.7320395418 0.0345182802
C 1.1017608141 3.0984986036 0.0475934192
S -0.4614341643 3.8082963337 0.0550633097
C -1.1564764660 2.2171102138 0.0372484710
C -2.5976629618 2.0038637014 0.0307230055
C -3.6136612740 2.9264598222 0.0159167400
C -4.8992599386 2.3256212095 0.0107720580
C -4.8521627312 0.9493911245 0.0217723283
C -5.9770763126 -0.0012676800 0.0192595190
C -5.7900170039 -1.3816317730 0.1673657033
C -6.8511820726 -2.2756659475 0.1690339021
C -8.1805955889 -1.8243705010 0.0233931581
N -9.2452376170 -2.6978437056 0.0301980269
C -10.5809500840 -2.2055159807 -0.1991096354
C -9.0217154138 -4.1064865076 0.2432357356
C -8.3728139650 -0.4331069332 -0.1299617845
C -7.2976540301 0.4424426221 -0.1313704492
S -3.2151613349 0.3938130643 0.0380081482
N -0.2860344767 1.2534865703 0.0300305768
S 3.7600793950 1.2513072588 0.0009619829
C 6.7422909661 0.2897999327 0.0308386197
C 8.0973232893 -0.0110659725 0.0090219560
H 11.3974393642 -3.0905841980 -0.1514254879
H 9.8881526359 -3.6140447723 -0.9193301134
H 9.9997263360 -3.5427083676 0.8596824492
H 11.8742813540 -1.0375742629 -0.0240962489
H 10.7881930123 -0.1371635519 1.0674511983
H 10.7698413227 0.1795366555 -0.6880553681
H 7.8365315359 -3.4023588788 -0.1939557909
H 5.4800248725 -2.8453515623 -0.1603121601
H 3.3627073170 -2.3387586496 0.0018430060
H 1.0200777439 -1.0942447186 0.0299888357
H 2.0053398814 3.7061121984 0.0538819385
H -3.4441566776 4.0055120343 0.0100561053
H -5.8279104280 2.8971293457 0.0071570620
H -4.7791780641 -1.7825223604 0.2899378693
H -6.6358973935 -3.3383413328 0.2828103836
H -10.6562371382 -1.6515795757 -1.1514928534
H -10.9261823215 -1.5327903181 0.6076411083
H -11.2778240273 -3.0514491979 -0.2517532284
H -9.9880830465 -4.6204718752 0.3211678729
H -8.4690263454 -4.2958436145 1.1798358520
H -8.4539848337 -4.5756460387 -0.5818215751
H -9.3764644091 -0.0240016468 -0.2478755563
H -7.5007252294 1.5086104844 -0.2593732000
H 6.4486997726 1.3414349203 0.1044424377
H 8.8117968443 0.8103356145 0.0657418722
58
step=12 E=-2401.206354901584 Eh
C 10.2741740675 -3.0682535434 -0.1420931846
N 9.8670535861 -1.6849395627 -0.1366845619
C 10.8493698096 -0.6511342529 0.0747406425
C 8.5246707816 -1.3682848559 -0.0985363346
C 7.5302797088 -2.3673643577 -0.1859618649
C 6.1826575146 -2.0406164197 -0.1659637373
C 5.7408165037 -0.7157512053 -0.0484518726
C 4.3030593318 -0.3961599470 -0.0269695312
C 3.2335048141 -1.2588566318 -0.0261719138
C 1.9736612264 -0.5997714502 -0.0055527204
C 2.0892163104 0.7647349269 0.0096222369
C 0.9878095447 1.7291539479 0.0301620225
C 1.0904397312 3.0952756510 0.0601482270
S -0.4727404745 3.8054220687 0.0735176738
C -1.1693859458 2.2152041392 0.0368425571
C -2.6106852149 2.0023514296 0.0296702073
C -3.6279187266 2.9238564144 0.0244965313
C -4.9125621863 2.3202542225 0.0213605078
C -4.8639047465 0.9439515845 0.0236041829
C -5.9852902499 -0.0108519593 0.0243412740
C -5.7899819442 -1.3833249554 0.2260013547
C -6.8459466259 -2.2834110303 0.2365516302
C -8.1750788855 -1.8476968581 0.0467109899
N -9.2304862141 -2.7322800934 0.0655394200
C -10.5702276410 -2.2563042277 -0.1754882254
C -8.9910957057 -4.1334641834 0.3098917257
C -8.3747161237 -0.4645866799 -0.1632695269
C -7.3050164739 0.4180843071 -0.1734448882
S -3.2259240047 0.3912917385 0.0254892023
N -0.2997281027 1.2510291706 0.0181677979
S 3.7476473127 1.2453398056 -0.0043570566
C 6.7284898837 0.2718156014 0.0520621006
C 8.0824279600 -0.0349057733 0.0326305712
H 11.3677116349 -3.1253586378 -0.2160065941
H 9.8571758920 -3.6102733422 -1.0077657566
H 9.9654072370 -3.6094873853 0.7727567452
H 11.8549944903 -1.0754298943 -0.0402115825
H 10.7827344767 -0.1966839633 1.0819506667
H 10.7483248796 0.1603640775 -0.6655964643
H 7.8086229141 -3.4176412665 -0.2754949742
H 5.4536266770 -2.8506762266 -0.2471809658
H 3.3419630894 -2.3441358629 -0.0345944322
H 1.0018864198 -1.0943683074 -0.0008030284
H 1.9946160976 3.7021720787 0.0752152484
H -3.4600346770 4.0033497658 0.0268642924
H -5.8424552529 2.8900008298 0.0304206724
H -4.7793833972 -1.7710329018 0.3880225730
H -6.6263687016 -3.3392399088 0.3960479747
H -10.6624041802 -1.7572547453 -1.1569624346
H -10.9050970367 -1.5394455606 0.5965391251
H -11.2647262390 -3.1055495092 -0.1675273520
H -9.9502885657 -4.6641541441 0.3570548979
H -8.4706373476 -4.3007575844 1.2694853183
H -8.3842772718 -4.6025018591 -0.4865704790
H -9.3778993514 -0.0686155330 -0.3229111514
H -7.5105160734 1.4769538232 -0.3506043053
H 6.4384752148 1.3219862636 0.1567026098
H 8.8002867426 0.7807308179 0.1221564992
58
step=13 E=-2401.206453287274 Eh
C 10.2552707821 -3.0942490216 -0.2081650929
N 9.8490582713 -1.7111549394 -0.1604642949
C 10.8386758257 -0.6867914802 0.0634908105
C 8.5081924979 -1.3900748813 -0.1181364863
C 7.5108316264 -2.3832779445 -0.2343318071
C 6.1640733193 -2.0529913712 -0.2109145283
C 5.7257974888 -0.7298743327 -0.0611830985
C 4.2885530739 -0.4065219125 -0.0360226209
C 3.2169296881 -1.2666538846 -0.0369255726
C 1.9587256762 -0.6040860691 -0.0123487524
C 2.0775788412 0.7601453604 0.0071547358
C 0.9771053786 1.7264708224 0.0324352220
C 1.0796108215 3.0923889080 0.0662478179
S -0.4832074133 3.8033189284 0.0826877593
C -1.1803652687 2.2130211848 0.0432477859
C -2.6222723907 2.0007456214 0.0367508201
C -3.6415726007 2.9200283760 0.0324874264
C -4.9254604922 2.3133933689 0.0317177421
C -4.8739398427 0.9372316554 0.0355770973
C -5.9927763038 -0.0215016211 0.0395662869
C -5.7974754405 -1.3853926015 0.2945806790
C -6.8495146701 -2.2899029081 0.3082773332
C -8.1750392144 -1.8686472194 0.0660214244
N -9.2247497795 -2.7602793088 0.0839059726
C -10.5649908578 -2.3060846826 -0.1965667916
C -8.9758733524 -4.1520949104 0.3707373379
C -8.3737600509 -0.4944260275 -0.1968602477
C -7.3084119645 0.3943301907 -0.2086052638
S -3.2347769705 0.3887801414 0.0320379588
N -0.3107942566 1.2490582765 0.0207775268
S 3.7372818397 1.2362932222 -0.0064061100
C 6.7162770024 0.2518156696 0.0679353814
C 8.0695403576 -0.0587542758 0.0449935092
H 11.3491724991 -3.1493104085 -0.2815192741
H 9.8394758793 -3.6101026264 -1.0907361587
H 9.9452237700 -3.6631109579 0.6894031773
H 11.8411724852 -1.1153173938 -0.0645990558
H 10.7808606166 -0.2502074572 1.0792305773
H 10.7384686979 0.1389253324 -0.6616382256
H 7.7862750717 -3.4322096385 -0.3495172244
H 5.4325311874 -2.8583605416 -0.3171124794
H 3.3227186261 -2.3526113731 -0.0479880408
H 0.9853001050 -1.0963638476 -0.0078975376
H 1.9842373443 3.6995148289 0.0811537712
H -3.4753413174 4.0002119114 0.0347964652
H -5.8575082402 2.8804817081 0.0447693142
H -4.7898533164 -1.7615676151 0.4990068205
H -6.6298478131 -3.3382042422 0.5126238526
H -10.6526773618 -1.8590994186 -1.2038183092
H -10.9125850927 -1.5530882466 0.5342564633
H -11.2534500994 -3.1591976854 -0.1498601784
H -9.9280286493 -4.6975074045 0.3837308691
H -8.4974425550 -4.2917584487 1.3568921818
H -8.3256455253 -4.6268144648 -0.3871147113
H -9.3737979179 -0.1098517074 -0.4004922761
H -7.5125027101 1.4452346202 -0.4318119090
H 6.4285550117 1.3000393969 0.1995585433
H 8.7900442159 0.7519168628 0.1588727853
58
step=14 E=-2401.206567709408 Eh
C 10.2519525604 -3.1074552382 -0.2724790321
N 9.8438013950 -1.7264279742 -0.1876722086
C 10.8299529268 -0.7014696664 0.0505012798
C 8.5025392927 -1.4086480448 -0.1429956693
C 7.5053150849 -2.3984690984 -0.2863221364
C 6.1583870112 -2.0689541626 -0.2592417359
C 5.7190503424 -0.7500500628 -0.0786204959
C 4.2811690185 -0.4279175568 -0.0493052436
C 3.2105671236 -1.2890990826 -0.0452424833
C 1.9512816187 -0.6281152047 -0.0184832498
C 2.0686992145 0.7363405064 -0.0017726497
C 0.9669896632 1.7019654171 0.0263989154
C 1.0676732484 3.0679598748 0.0547797958
S -0.4955898908 3.7776783235 0.0785165259
C -1.1908546577 2.1862103238 0.0471368878
C -2.6332202116 1.9738829444 0.0480275512
C -3.6497332930 2.8962996260 0.0460054144
C -4.9347739794 2.2912201396 0.0527993753
C -4.8842379497 0.9151478909 0.0595688752
C -6.0059760360 -0.0403898595 0.0670903552
C -5.8189728421 -1.3935882321 0.3791950985
C -6.8715252786 -2.2972620846 0.3906481241
C -8.1877984114 -1.8853960210 0.0878529231
N -9.2355373154 -2.7791153963 0.0961857734
C -10.5668335091 -2.3326157854 -0.2356877242
C -8.9920069903 -4.1632027501 0.4232665767
C -8.3781867190 -0.5214203634 -0.2277895457
C -7.3123352844 0.3671322836 -0.2367703076
S -3.2470238948 0.3625020466 0.0488193001
N -0.3206206091 1.2232476205 0.0226752354
S 3.7278866271 1.2140785918 -0.0224473814
C 6.7093331617 0.2280881751 0.0769819140
C 8.0628807185 -0.0815153408 0.0497625625
H 11.3464425387 -3.1589799377 -0.3405286425
H 9.8420187853 -3.5996877536 -1.1714957121
H 9.9377891397 -3.7013358338 0.6072647972
H 11.8340953753 -1.1249781701 -0.0820359888
H 10.7701092161 -0.2791096862 1.0721308225
H 10.7276506602 0.1343453000 -0.6631978298
H 7.7810745500 -3.4445936750 -0.4262237720
H 5.4269725872 -2.8712339091 -0.3891174209
H 3.3179200963 -2.3751952600 -0.0524521150
H 0.9782731550 -1.1217126096 -0.0095371950
H 1.9718556866 3.6763677291 0.0619482461
H -3.4806344268 3.9762912205 0.0452650953
H -5.8671942116 2.8582484071 0.0708637051
H -4.8185168148 -1.7601941626 0.6316658300
H -6.6601296615 -3.3373341181 0.6417990615
H -10.6307234977 -1.9306688102 -1.2637983959
H -10.9269152080 -1.5467702544 0.4531080597
H -11.2609629795 -3.1798229311 -0.1656015194
H -9.9391316009 -4.7170146548 0.3949181759
H -8.5648933241 -4.2812699547 1.4358301321
H -8.2987401641 -4.6452236892 -0.2903878480
H -9.3710968600 -0.1457209790 -0.4793888421
H -7.5068529086 1.4092305674 -0.5065081189
H 6.4208011601 1.2727084057 0.2346113103
H 8.7835122834 0.7259563507 0.1857181606
58
step=15 E=-2401.206717174885 Eh
C 10.2185131654 -3.1457444976 -0.3679808600
N 9.8143905345 -1.7680907742 -0.2297667540
C 10.8050692850 -0.7526913321 0.0295436971
C 8.4744199841 -1.4461100674 -0.1816452639
C 7.4714688570 -2.4237126643 -0.3642012904
C 6.1264918208 -2.0868724162 -0.3301652755
C 5.6951481769 -0.7727256467 -0.1028653330
C 4.2588745479 -0.4447462663 -0.0664550105
C 3.1865430086 -1.3034970605 -0.0482220302
C 1.9293638098 -0.6384918388 -0.0216407674
C 2.0512318153 0.7256798646 -0.0172322489
C 0.9515341144 1.6934527846 0.0109224009
C 1.0557509765 3.0592332469 0.0285289761
S -0.5065763003 3.7709650764 0.0612108308
C -1.2054237283 2.1806298085 0.0449742176
C -2.6476456913 1.9667489972 0.0586771456
C -3.6689401629 2.8838865944 0.0651640759
C -4.9520667378 2.2744044536 0.0858365854
C -4.8939912458 0.8989474001 0.0913858907
C -6.0086171205 -0.0642689300 0.1044129955
C -5.8277954786 -1.3965056465 0.4992301655
C -6.8724840244 -2.3089731716 0.5052786406
C -8.1755927646 -1.9270621522 0.1171593433
N -9.2175572190 -2.8275579517 0.1152661901
C -10.5399108002 -2.4006284637 -0.2716696710
C -8.9757116240 -4.2010644467 0.4841110357
C -8.3603136465 -0.5824952769 -0.2746558048
C -7.3012689286 0.3144014520 -0.2814445431
S -3.2551007077 0.3532698488 0.0625008417
N -0.3368708461 1.2167074207 0.0195586193
S 3.7113148243 1.1991523903 -0.0527016618
C 6.6902733179 0.1935014522 0.0909234422
C 8.0416993459 -0.1238509680 0.0552524831
H 11.3134436529 -3.1991676047 -0.4252148196
H 9.8169369771 -3.5993765941 -1.2909166248
H 9.8920939370 -3.7728992482 0.4834717949
H 11.8074062232 -1.1790312475 -0.1068209995
H 10.7440380254 -0.3496462341 1.0586366822
H 10.7092793144 0.0972964847 -0.6684201747
H 7.7410410351 -3.4656201788 -0.5421496585
H 5.3899239246 -2.8780468172 -0.4944971608
H 3.2915355439 -2.3898102148 -0.0423707506
H 0.9550379501 -1.1289814658 -0.0017216236
H 1.9609772693 3.6659297495 0.0247648624
H -3.5040893267 3.9643788252 0.0635719612
H -5.8879585935 2.8352164618 0.1171507834
H -4.8388883977 -1.7364481116 0.8237442042
H -6.6668793783 -3.3312837250 0.8246784204
H -10.5801827275 -2.0559837136 -1.3216753493
H -10.9121739311 -1.5780289808 0.3651551254
H -11.2386253790 -3.2409474709 -0.1687838297
H -9.9100114148 -4.7709568100 0.4009576640
H -8.6141924496 -4.2968188177 1.5243862178
H -8.2295137882 -4.6817468446 -0.1743451212
H -9.3421384046 -0.2307642491 -0.5949250968
H -7.4877205903 1.3383322543 -0.6183134320
H 6.4073724457 1.2329399744 0.2875357753
H 8.7672983717 0.6732868376 0.2217577301
58
step=16 E=-2401.206875097726 Eh
C 10.2716780024 -3.1050039112 -0.4884372663
N 9.8448412341 -1.7397611556 -0.3050166938
C 10.8187003561 -0.7111403305 -0.0336394031
C 8.4995626876 -1.4446919253 -0.2347703839
C 7.5120085007 -2.4343767721 -0.4347643765
C 6.1614570196 -2.1234746525 -0.3764943235
C 5.7097840483 -0.8245385964 -0.1063786596
C 4.2700636518 -0.5164193664 -0.0475336974
C 3.2056400391 -1.3831624817 0.0095265874
C 1.9426580416 -0.7286750807 0.0374390490
C 2.0519577387 0.6362082022 0.0065650375
C 0.9499022758 1.6012325616 0.0242434177
C 1.0566529327 2.9666687243 0.0090811817
S -0.5040610545 3.6817282368 0.0363747104
C -1.2051651933 2.0922929290 0.0620534898
C -2.6485988594 1.8867241740 0.0834491454
C -3.6614635128 2.8129692841 0.0805850991
C -4.9497819264 2.2149963331 0.1076957251
C -4.9042675047 0.8397437180 0.1271718617
C -6.0284424980 -0.1116526926 0.1407823778
C -5.8948169392 -1.4196014165 0.6257432721
C -6.9541257056 -2.3151738770 0.6189209664
C -8.2251448772 -1.9404849706 0.1296251741
N -9.2831700422 -2.8219054102 0.1130707348
C -10.5758397851 -2.3892258686 -0.3564574609
C -9.0880989804 -4.1851634418 0.5412211280
C -8.3635596678 -0.6186473624 -0.3476210669
C -7.2890252948 0.2592648124 -0.3432010763
S -3.2709219793 0.2786877205 0.1035630242
N -0.3390574613 1.1261470441 0.0549144731
S 3.7072462310 1.1217396565 -0.0636650116
C 6.6904863055 0.1528707716 0.1037576001
C 8.0467059682 -0.1372861012 0.0425502649
H 11.3673623959 -3.1394552283 -0.5427240344
H 9.8805825604 -3.5343660721 -1.4274056420
H 9.9519412111 -3.7637043258 0.3411626012
H 11.8277961832 -1.1196705740 -0.1732601786
H 10.7500913562 -0.3227489617 1.0002739039
H 10.7094988621 0.1463714274 -0.7205544953
H 7.7977575190 -3.4650970813 -0.6484336371
H 5.4367265682 -2.9214295113 -0.5592400648
H 3.3211454124 -2.4677685120 0.0434993783
H 0.9735401797 -1.2271761465 0.0843872216
H 1.9627581807 3.5710887949 -0.0157333809
H -3.4864059958 3.8915247807 0.0679233327
H -5.8820615124 2.7816991791 0.1350652978
H -4.9343831076 -1.7492495961 1.0348224998
H -6.7882190627 -3.3180482448 1.0139937463
H -10.5595812146 -2.1001364542 -1.4235725177
H -10.9550339948 -1.5264944315 0.2197448980
H -11.3001827399 -3.2063231077 -0.2418698461
H -10.0227540846 -4.7451735979 0.4087871008
H -8.8011419199 -4.2540831325 1.6065013364
H -8.3053876452 -4.6949053712 -0.0489895357
H -9.3178035105 -0.2722980553 -0.7467230961
H -7.4349373023 1.2638732453 -0.7505739605
H 6.3910790532 1.1804081193 0.3343912290
H 8.7599908121 0.6681911397 0.2207341494
58
step=17 E=-2401.206874883083 Eh
C 10.3085183448 -3.0680822001 -0.6926220378
N 9.8760131677 -1.7241953842 -0.4005927334
C 10.8424441392 -0.7025468544 -0.0826358345
C 8.5294740047 -1.4455360260 -0.3010789945
C 7.5491737590 -2.4289654255 -0.5590847270
C 6.1971621894 -2.1315465765 -0.4695597193
C 5.7408618851 -0.8565124352 -0.1104760535
C 4.2988898359 -0.5702293536 -0.0273351069
C 3.2529113774 -1.4562324544 0.0621230457
C 1.9794269841 -0.8222553885 0.0968756283
C 2.0636661409 0.5435922005 0.0377286144
C 0.9506074754 1.4948254022 0.0487463655
C 1.0419981674 2.8612330313 0.0163316708
S -0.5241295484 3.5633634582 0.0302621417
C -1.2091802872 1.9676016160 0.0800115618
C -2.6520614130 1.7599063758 0.0998998868
C -3.6568028885 2.6949133377 0.0955668773
C -4.9511520615 2.1122117713 0.1170160366
C -4.9179276356 0.7370434583 0.1360115683
C -6.0576182278 -0.1940751125 0.1456987451
C -5.9920588633 -1.4525047151 0.7584063022
C -7.0723436074 -2.3234766060 0.7641864142
C -8.2947877705 -1.9675359387 0.1523981530
N -9.3793872139 -2.8163332905 0.1524693622
C -10.6298049886 -2.3813735628 -0.4174201232
C -9.2548059883 -4.1475921694 0.6922559496
C -8.3602904733 -0.6977716581 -0.4623136636
C -7.2667359571 0.1554329375 -0.4673523878
S -3.2905590026 0.1572073684 0.1157447555
N -0.3342359451 1.0086434080 0.0878593394
S 3.7085391058 1.0573261428 -0.0695182177
C 6.7131928879 0.1155237055 0.1561239891
C 8.0697352675 -0.1622640208 0.0638435480
H 11.4044333226 -3.0965991660 -0.7382712365
H 9.9273562208 -3.4201719446 -1.6671636288
H 9.9819708621 -3.7919534387 0.0772128705
H 11.8541428553 -1.0971966496 -0.2393044744
H 10.7703685146 -0.3640871129 0.9679434503
H 10.7271919958 0.1856884835 -0.7282579028
H 7.8408941359 -3.4392473846 -0.8470975599
H 5.4743486110 -2.9174382103 -0.7038439395
H 3.3908902886 -2.5369851242 0.1187974544
H 1.0206137456 -1.3364508383 0.1688639983
H 1.9419496159 3.4732749364 -0.0148227719
H -3.4707804014 3.7711078414 0.0875645967
H -5.8786155816 2.6856637524 0.1479941353
H -5.0721767730 -1.7542822567 1.2688239268
H -6.9663185900 -3.2831579704 1.2706440054
H -10.5604915265 -2.2113274049 -1.5078756017
H -10.9850009161 -1.4446037016 0.0466232463
H -11.3977346663 -3.1462064854 -0.2448356200
H -10.1854990964 -4.7003378637 0.5125303664
H -9.0675258575 -4.1463511174 1.7816815075
H -8.4338244664 -4.7101140229 0.2132700361
H -9.2733624595 -0.3737082136 -0.9618408006
H -7.3514442598 1.1171601277 -0.9808726281
H 6.4076426887 1.1222146497 0.4574250894
H 8.7792301443 0.6351808322 0.2855073362
58
step=18 E=-2401.206990860355 Eh
C 10.2717665527 -3.1009904228 -0.6551639703
N 9.8540248821 -1.7454536051 -0.3939288174
C 10.8349183627 -0.7338165116 -0.0863583513
C 8.5106350330 -1.4507206525 -0.2921144919
C 7.5217830286 -2.4318437577 -0.5248353394
C 6.1716749346 -2.1248714614 -0.4358525915
C 5.7247641872 -0.8396091878 -0.1015650898
C 4.2855918024 -0.5375531897 -0.0143964063
C 3.2312283667 -1.4119202048 0.0902619734
C 1.9625326488 -0.7678287416 0.1259524661
C 2.0613119222 0.5961675068 0.0524431532
C 0.9506388290 1.5508697747 0.0589380010
C 1.0409378329 2.9171965320 0.0157499548
S -0.5258317039 3.6172381404 0.0259148299
C -1.2103600215 2.0212122934 0.0878901934
C -2.6524079792 1.8071139904 0.1064176557
C -3.6619411307 2.7376342790 0.0950711014
C -4.9520399412 2.1448931826 0.1104158470
C -4.9104201986 0.7697212365 0.1329552195
C -6.0453699835 -0.1685339484 0.1374841728
C -5.9576250583 -1.4409239159 0.7175349985
C -7.0324036717 -2.3189697829 0.7171786988
C -8.2665098266 -1.9602720940 0.1309503261
N -9.3375801928 -2.8262431779 0.1250750604
C -10.5940216839 -2.4099798460 -0.4479918214
C -9.1913369954 -4.1583638558 0.6590077489
C -8.3548551311 -0.6766463590 -0.4518774862
C -7.2680709812 0.1858612500 -0.4470834573
S -3.2797883258 0.2002014456 0.1280724920
N -0.3337583025 1.0641376083 0.1025421709
S 3.7100074333 1.0949105137 -0.0708976166
C 6.7070199599 0.1297078675 0.1380387960
C 8.0625399230 -0.1559824206 0.0471474160
H 11.3675633235 -3.1417023384 -0.7015762044
H 9.8855568698 -3.4721371283 -1.6208702267
H 9.9388881563 -3.8041547026 0.1313483662
H 11.8412083517 -1.1459598311 -0.2347177287
H 10.7649525937 -0.3799096621 0.9595446426
H 10.7356582587 0.1474322650 -0.7444526391
H 7.8058844751 -3.4503761497 -0.7918442048
H 5.4429583064 -2.9119490464 -0.6485350446
H 3.3601908801 -2.4936773895 0.1562102104
H 0.9989855071 -1.2726556848 0.2080043442
H 1.9406653559 3.5303656281 -0.0210084133
H -3.4826690023 3.8155752316 0.0832450481
H -5.8837770797 2.7128654933 0.1299109414
H -5.0252477358 -1.7507589334 1.2005116393
H -6.9096598490 -3.2926986730 1.1928824298
H -10.5175722644 -2.2097939912 -1.5329442838
H -10.9831712827 -1.4958801356 0.0346605057
H -11.3402738450 -3.2021229961 -0.3056435348
H -10.1206557850 -4.7192463561 0.4968243682
H -8.9843679478 -4.1565606822 1.7450267953
H -8.3742802074 -4.7136119931 0.1641810651
H -9.2784209964 -0.3488119831 -0.9302998785
H -7.3691212658 1.1612177122 -0.9319414992
H 6.4082955481 1.1452066813 0.4173509897
H 8.7777134745 0.6423733303 0.2482862305
58
step=19 E=-2401.206954950822 Eh
C 10.2850024655 -3.0963344350 -0.5226249897
N 9.8638432555 -1.7290395554 -0.3355928754
C 10.8414711267 -0.7094268260 -0.0424287543
C 8.5192022562 -1.4328646355 -0.2490238061
C 7.5335794860 -2.4261977576 -0.4383144243
C 6.1831787015 -2.1164293306 -0.3652207170
C 5.7302421520 -0.8188609342 -0.0906504244
C 4.2897525546 -0.5168695315 -0.0147756758
C 3.2340950610 -1.3888725590 0.0948109399
C 1.9673080394 -0.7403729975 0.1222518442
C 2.0635692215 0.6230927948 0.0395101923
C 0.9553544186 1.5816493847 0.0393034893
C 1.0550594407 2.9474138133 -0.0003598645
S -0.5083115566 3.6548371443 0.0080306685
C -1.2022115997 2.0626139934 0.0627580035
C -2.6454875360 1.8566835112 0.0802589768
C -3.6525349632 2.7901074677 0.0790932857
C -4.9430265978 2.1978807640 0.0938889994
C -4.9066254203 0.8219462936 0.1009452815
C -6.0410935795 -0.1185143706 0.1038523851
C -5.9161465206 -1.4337398038 0.5699349961
C -6.9867459971 -2.3171231082 0.5697667630
C -8.2569787215 -1.9196362632 0.0974124310
N -9.3243330477 -2.7902244663 0.0899547448
C -10.6056761778 -2.3585684297 -0.4144835251
C -9.1485007769 -4.1456047908 0.5520146104
C -8.3840996827 -0.5928882597 -0.3707964209
C -7.3014657607 0.2749839103 -0.3656989005
S -3.2766128404 0.2513812401 0.0846044202
N -0.3312926989 1.1003991832 0.0739158948
S 3.7137924565 1.1155557003 -0.0865125810
C 6.7097097867 0.1632030037 0.1047077071
C 8.0660531429 -0.1253244081 0.0295475221
H 11.3812756653 -3.1364618815 -0.5633236171
H 9.9029919920 -3.5186755936 -1.4688203104
H 9.9509829647 -3.7593139495 0.2980060926
H 11.8495328329 -1.1264633807 -0.1645121972
H 10.7564325994 -0.3246005512 0.9917047307
H 10.7540729174 0.1523065561 -0.7275490883
H 7.8202212716 -3.4559756607 -0.6559855998
H 5.4570762522 -2.9155790048 -0.5390146227
H 3.3607362536 -2.4706691087 0.1682594742
H 1.0027711453 -1.2433337593 0.2060146873
H 1.9587963776 3.5558752815 -0.0300940289
H -3.4716817719 3.8682479864 0.0761968612
H -5.8725704187 2.7697437173 0.1170153243
H -4.9514770186 -1.7810133908 0.9545139974
H -6.8286465945 -3.3285190486 0.9468381616
H -10.5580806072 -2.0586466474 -1.4776485051
H -11.0114350140 -1.5034829277 0.1560409330
H -11.3250400889 -3.1835880524 -0.3331901308
H -10.0955616523 -4.6910735720 0.4501719842
H -8.8497096450 -4.1886132114 1.6154746158
H -8.3836518717 -4.6884432979 -0.0328846859
H -9.3389307565 -0.2322013419 -0.7560163988
H -7.4390651496 1.2874358124 -0.7567280446
H 6.4080885145 1.1907252226 0.3340615164
H 8.7789959433 0.6835846375 0.1946700591
58
step=20 E=-2401.207040604143 Eh
C 10.2809680157 -3.0960622644 -0.6006103022
N 9.8625086677 -1.7357209651 -0.3665394044
C 10.8430086259 -0.7235253073 -0.0594436021
C 8.5188807542 -1.4398891737 -0.2690730456
C 7.5302283381 -2.4251976838 -0.4842834271
C 6.1799182438 -2.1180833035 -0.4006826473
C 5.7326109261 -0.8272586736 -0.0888712060
C 4.2926388990 -0.5271869816 -0.0044529712
C 3.2388612703 -1.4003979446 0.1143162637
C 1.9697977023 -0.7570836157 0.1452556491
C 2.0652918892 0.6060806494 0.0546517877
C 0.9541914710 1.5606275569 0.0526734460
C 1.0492861548 2.9267652487 0.0137070180
S -0.5160924511 3.6298797036 0.0138601261
C -1.2049029145 2.0357817866 0.0691741458
C -2.6476983384 1.8271259727 0.0819485846
C -3.6562521481 2.7587592739 0.0783012920
C -4.9474743052 2.1686507362 0.0889245576
C -4.9089140152 0.7928988844 0.0978531693
C -6.0446125201 -0.1451387148 0.1011632307
C -5.9384111953 -1.4420616565 0.6197699512
C -7.0149199192 -2.3181683414 0.6241848900
C -8.2706999940 -1.9333187321 0.1050905007
N -9.3447523014 -2.7955996952 0.1067605571
C -10.6139290214 -2.3668186072 -0.4286017918
C -9.1872216994 -4.1378979031 0.6107822723
C -8.3777823156 -0.6257266854 -0.4186215101
C -7.2893445341 0.2344617425 -0.4184850139
S -3.2786326305 0.2217415386 0.0847087573
N -0.3311426285 1.0758597756 0.0855160584
S 3.7136917456 1.1035188198 -0.0804399897
C 6.7143082625 0.1469766627 0.1328961995
C 8.0702115257 -0.1396634640 0.0473217447
H 11.3769334176 -3.1372711337 -0.6434715255
H 9.8968248659 -3.4850695922 -1.5600988868
H 9.9463676639 -3.7853809882 0.1974720894
H 11.8496917395 -1.1389274609 -0.1960205087
H 10.7647060440 -0.3598002068 0.9825976399
H 10.7521667294 0.1519878294 -0.7262809439
H 7.8152330313 -3.4480408111 -0.7333200683
H 5.4517784661 -2.9095536084 -0.5984989794
H 3.3691914310 -2.4810647711 0.1936060684
H 1.0069303256 -1.2616368304 0.2360429156
H 1.9510225251 3.5376613802 -0.0126317361
H -3.4757002618 3.8365840318 0.0774377567
H -5.8770822530 2.7399239995 0.1129301444
H -4.9876471837 -1.7773974922 1.0466697851
H -6.8738272318 -3.3136464327 1.0467336906
H -10.5528244586 -2.1152383167 -1.5036093393
H -11.0085928479 -1.4805155506 0.1000169845
H -11.3481041028 -3.1746643195 -0.3159741008
H -10.1316267611 -4.6842999186 0.4928718841
H -8.9220808171 -4.1532506025 1.6838732643
H -8.4057356283 -4.6970812146 0.0650463481
H -9.3189627315 -0.2758491478 -0.8443906754
H -7.4085582209 1.2301710507 -0.8552343462
H 6.4145984384 1.1673621407 0.3930582571
H 8.7848776334 0.6627834390 0.2338458217
58
step=21 E=-2401.207084327323 Eh
C 10.2797049631 -3.0972510802 -0.6302787104
N 9.8590531447 -1.7452275468 -0.3568266786
C 10.8364228176 -0.7396762964 -0.0204632537
C 8.5147491992 -1.4509278002 -0.2685675585
C 7.5286398625 -2.4296996658 -0.5222313275
C 6.1784973088 -2.1201678673 -0.4454541493
C 5.7267611447 -0.8382161273 -0.1042208471
C 4.2873415919 -0.5353273181 -0.0255968711
C 3.2329521176 -1.4080214818 0.0931299204
C 1.9651751591 -0.7625330064 0.1213841617
C 2.0628473892 0.6004060650 0.0281990599
C 0.9527706526 1.5558224801 0.0278475804
C 1.0457285472 2.9224861318 0.0027478484
S -0.5202682711 3.6243000196 0.0061143385
C -1.2076623582 2.0293753587 0.0450218007
C -2.6497531772 1.8169976788 0.0601204923
C -3.6577452087 2.7490290120 0.0780204051
C -4.9478004259 2.1568005244 0.0906616641
C -4.9099489707 0.7811094561 0.0798522407
C -6.0456520230 -0.1562791498 0.0861936110
C -5.9430639255 -1.4493269612 0.6150517720
C -7.0220426059 -2.3222066594 0.6318940865
C -8.2785068598 -1.9352939711 0.1164648757
N -9.3572362655 -2.7914458176 0.1361690665
C -10.6299265041 -2.3542435983 -0.3827869721
C -9.2012783476 -4.1318409559 0.6453616670
C -8.3816243697 -0.6328199219 -0.4211527755
C -7.2898244836 0.2227122996 -0.4351860808
S -3.2797314539 0.2109055654 0.0442050525
N -0.3324040533 1.0703831336 0.0531497704
S 3.7115325864 1.0960808028 -0.1091498582
C 6.7067923551 0.1280862581 0.1548016947
C 8.0629492623 -0.1592661851 0.0769268342
H 11.3759664063 -3.1383472743 -0.6610915510
H 9.9065782543 -3.4546564319 -1.6062767374
H 9.9352843041 -3.8115832393 0.1410157387
H 11.8443371521 -1.1514119137 -0.1582232655
H 10.7498472112 -0.3988947715 1.0285353146
H 10.7501888123 0.1502567027 -0.6685622854
H 7.8151074697 -3.4456033569 -0.7964069922
H 5.4514673617 -2.9039009490 -0.6747397550
H 3.3623821815 -2.4883112547 0.1776261185
H 1.0015073409 -1.2651391292 0.2133138661
H 1.9467324908 3.5344246981 -0.0135641358
H -3.4778748833 3.8267212694 0.0940778765
H -5.8770676815 2.7270776258 0.1347303532
H -4.9929451630 -1.7835964267 1.0438521110
H -6.8829423603 -3.3134686955 1.0643925477
H -10.5854805519 -2.1173995373 -1.4620542865
H -11.0029666192 -1.4560506892 0.1411502059
H -11.3720156806 -3.1507142239 -0.2452024902
H -10.1479074231 -4.6757361238 0.5349468133
H -8.9295928122 -4.1436109565 1.7168480834
H -8.4247687765 -4.6956376264 0.0974957520
H -9.3225761416 -0.2837789359 -0.8476484088
H -7.4056323616 1.2132791998 -0.8841899555
H 6.4054766426 1.1410705114 0.4402652318
H 8.7763314983 0.6365257811 0.2936617513
58
step=22 E=-2401.207118657283 Eh
C 10.2780972469 -3.0998456765 -0.6413882167
N 9.8597717196 -1.7531462275 -0.3392774434
C 10.8370116627 -0.7589119084 0.0301612054
C 8.5156371252 -1.4552867217 -0.2617424310
C 7.5285679599 -2.4242183238 -0.5482427723
C 6.1775229225 -2.1163972312 -0.4808437678
C 5.7291772979 -0.8398951417 -0.1157701922
C 4.2891722965 -0.5393854231 -0.0430797947
C 3.2378197258 -1.4134198897 0.0908877868
C 1.9687913854 -0.7698214431 0.1119777661
C 2.0629915209 0.5918938513 -0.0022899585
C 0.9521088855 1.5465660163 -0.0078798560
C 1.0453417303 2.9132574313 -0.0284525636
S -0.5204482241 3.6153142395 -0.0245586995
C -1.2080403561 2.0204696730 0.0097799614
C -2.6504582156 1.8098160418 0.0296145929
C -3.6574766505 2.7419383541 0.0738304787
C -4.9492168809 2.1533917450 0.0902316185
C -4.9119787376 0.7781613038 0.0559620048
C -6.0513847620 -0.1542413190 0.0655311927
C -5.9449681146 -1.4538891004 0.5771797020
C -7.0297526696 -2.3193490684 0.6052319769
C -8.2946960022 -1.9184995577 0.1222178856
N -9.3799438144 -2.7659038686 0.1577349133
C -10.6594598448 -2.3145515906 -0.3309943118
C -9.2246953573 -4.1105660606 0.6556917454
C -8.3995188199 -0.6097577614 -0.3998056864
C -7.3026640923 0.2386923083 -0.4279061775
S -3.2833348275 0.2053996905 -0.0061726400
N -0.3330984785 1.0610770870 0.0148082686
S 3.7098859304 1.0888494635 -0.1537799200
C 6.7081832890 0.1188390546 0.1745557480
C 8.0646313121 -0.1693573890 0.1054818767
H 11.3745174957 -3.1460783078 -0.6556750642
H 9.9186030896 -3.4305496855 -1.6319553008
H 9.9179790687 -3.8317633398 0.1058969717
H 11.8448220008 -1.1737293522 -0.0991262031
H 10.7357519515 -0.4368278445 1.0837238741
H 10.7660533388 0.1434814483 -0.6026638698
H 7.8162356299 -3.4343638129 -0.8419181623
H 5.4502340376 -2.8921025410 -0.7365401137
H 3.3712564657 -2.4917182993 0.1948429503
H 1.0062626200 -1.2726484937 0.2153045707
H 1.9466304456 3.5250442750 -0.0397457914
H -3.4753618630 3.8188485703 0.1085086590
H -5.8770264758 2.7241903780 0.1559521039
H -4.9886532180 -1.7993429499 0.9830321142
H -6.8879336904 -3.3165245956 1.0230106639
H -10.6337325151 -2.0626537373 -1.4074439153
H -11.0171900243 -1.4217547808 0.2126588359
H -11.4036889413 -3.1087417537 -0.1908089068
H -10.1808483552 -4.6425394866 0.5711399353
H -8.9214577131 -4.1302773477 1.7184906717
H -8.4713340840 -4.6812784048 0.0829546645
H -9.3468352293 -0.2495279052 -0.8023863144
H -7.4206457769 1.2347677420 -0.8642991450
H 6.4050313973 1.1255483237 0.4799653570
H 8.7777435632 0.6194978745 0.3474163759
58
step=23 E=-2401.207151006290 Eh
C 10.2677060490 -3.1144753617 -0.6686400437
N 9.8521141435 -1.7748177139 -0.3322464599
C 10.8294014754 -0.7952663265 0.0752830471
C 8.5085699632 -1.4718780338 -0.2640213354
C 7.5203519231 -2.4273326226 -0.5891941812
C 6.1711479621 -2.1099376011 -0.5257645902
C 5.7260047958 -0.8421854801 -0.1278994692
C 4.2858691795 -0.5419158042 -0.0551952433
C 3.2361426801 -1.4133587958 0.1035578933
C 1.9656355991 -0.7716356003 0.1198581463
C 2.0584924346 0.5873798726 -0.0241217938
C 0.9466195413 1.5411582556 -0.0374065782
C 1.0436536024 2.9073663648 -0.0688515440
S -0.5207306830 3.6123326284 -0.0701672333
C -1.2111234837 2.0189628384 -0.0164009589
C -2.6544730584 1.8150816731 0.0103142572
C -3.6578540223 2.7503169291 0.0685195814
C -4.9514601807 2.1656522740 0.0917490009
C -4.9193413405 0.7904796415 0.0497667695
C -6.0607797920 -0.1395004788 0.0647660321
C -5.9528585253 -1.4414417042 0.5704922901
C -7.0383680180 -2.3058720743 0.6054912590
C -8.3064687048 -1.9000888340 0.1347409337
N -9.3933655029 -2.7452237703 0.1747317640
C -10.6748864283 -2.2914090031 -0.3067834349
C -9.2393881913 -4.0901818223 0.6727691729
C -8.4126087553 -0.5889289600 -0.3809172989
C -7.3153432269 0.2589183210 -0.4153266304
S -3.2932521895 0.2131925055 -0.0281311462
N -0.3390516907 1.0573577250 -0.0058759013
S 3.7040062737 1.0825481644 -0.1964288746
C 6.7052203828 0.1048785150 0.1979425673
C 8.0597109704 -0.1935140147 0.1322997044
H 11.3639937055 -3.1673335856 -0.6646299467
H 9.9239680745 -3.4132746150 -1.6749968764
H 9.8899332346 -3.8660105631 0.0498554205
H 11.8364918766 -1.2149159023 -0.0441817401
H 10.7110838440 -0.4952144812 1.1335355892
H 10.7765182267 0.1212481864 -0.5391234599
H 7.8047226084 -3.4306409015 -0.9089371175
H 5.4399709766 -2.8718473778 -0.8114214235
H 3.3733544782 -2.4888350025 0.2315373659
H 1.0042042640 -1.2729098640 0.2411410591
H 1.9464416923 3.5171627739 -0.0871461958
H -3.4714890646 3.8264725954 0.1085263312
H -5.8773725717 2.7385754580 0.1677785642
H -4.9929584023 -1.7901679823 0.9651952211
H -6.8944944291 -3.3054024307 1.0174223176
H -10.6518019291 -2.0293659238 -1.3807537633
H -11.0331646214 -1.4044284182 0.2462811367
H -11.4178018663 -3.0882184679 -0.1732490527
H -10.2004573423 -4.6157623063 0.6037458917
H -8.9208036176 -4.1093288252 1.7310264537
H -8.4982299611 -4.6676576834 0.0905884088
H -9.3630033145 -0.2252485013 -0.7733610220
H -7.4352541664 1.2573916288 -0.8460430037
H 6.4039372886 1.1039733495 0.5296151685
H 8.7758462528 0.5834327910 0.4028783455
58
step=24 E=-2401.207172479285 Eh
C 10.2647041086 -3.1191205294 -0.6779524695
N 9.8413942492 -1.7975217750 -0.2848024301
C 10.8096094625 -0.8434031723 0.1975331322
C 8.4976485350 -1.4901688904 -0.2494315150
C 7.5183346691 -2.4222280718 -0.6589792078
C 6.1678208613 -2.1046494421 -0.6236087920
C 5.7128853762 -0.8593427958 -0.1706980521
C 4.2725271333 -0.5569070556 -0.1129622919
C 3.2223400731 -1.4264934133 0.0503295330
C 1.9539026516 -0.7797387423 0.0611632332
C 2.0470421771 0.5780637402 -0.0937804730
C 0.9389505716 1.5365773588 -0.1059528950
C 1.0434742575 2.9022216089 -0.1387125993
S -0.5173078912 3.6154237099 -0.1359612040
C -1.2155714832 2.0256786943 -0.0705075482
C -2.6596727808 1.8304939864 -0.0283863608
C -3.6570185847 2.7700750713 0.0564492889
C -4.9524652089 2.1901785887 0.0968605917
C -4.9286951678 0.8151268969 0.0426698562
C -6.0718937164 -0.1126254689 0.0718948898
C -5.9584634615 -1.4215827481 0.5579981210
C -7.0458583177 -2.2830421932 0.6054025388
C -8.3223516596 -1.8672691860 0.1668498395
N -9.4103901884 -2.7102303354 0.2181620884
C -10.7003456155 -2.2457105583 -0.2298109130
C -9.2523749741 -4.0602974005 0.7013421767
C -8.4359018099 -0.5492256046 -0.3290772511
C -7.3359139653 0.2948778831 -0.3740465936
S -3.3069227700 0.2321001443 -0.0717205310
N -0.3489326421 1.0593793262 -0.0659958022
S 3.6936525265 1.0671229346 -0.2710045231
C 6.6845416515 0.0648373858 0.2335956180
C 8.0406549384 -0.2311857280 0.1970766953
H 11.3598867813 -3.1779777187 -0.6358437875
H 9.9576801154 -3.3619524839 -1.7109649775
H 9.8579563931 -3.9054812813 -0.0149301178
H 11.8175697540 -1.2657435236 0.0963629299
H 10.6553024145 -0.5879932905 1.2626995439
H 10.7842808906 0.0986865034 -0.3788473500
H 7.8116880295 -3.4078128887 -1.0226477624
H 5.4434180540 -2.8458316300 -0.9742737322
H 3.3596867266 -2.5006437263 0.1899871883
H 0.9915026605 -1.2775774753 0.1878607135
H 1.9493855933 3.5071797104 -0.1629383025
H -3.4646583616 3.8448517421 0.1041884449
H -5.8744341879 2.7662260579 0.1939185474
H -4.9912395564 -1.7785671577 0.9263334107
H -6.8965474364 -3.2887136635 1.0002903111
H -10.6971610367 -1.9640610608 -1.2988228887
H -11.0467701346 -1.3685355340 0.3462744972
H -11.4419669284 -3.0438909699 -0.0976009340
H -10.2194864680 -4.5773520730 0.6585175346
H -8.9022040296 -4.0893099745 1.7492254245
H -8.5341599263 -4.6400199492 0.0929813479
H -9.3931334358 -0.1771031993 -0.6961363980
H -7.4618285594 1.2998030720 -0.7874496017
H 6.3720790034 1.0448865607 0.6084843075
H 8.7487559266 0.5278775228 0.5322441256
58
step=25 E=-2401.207221702648 Eh
C 10.2630392766 -3.1182725567 -0.6817682420
N 9.8328873828 -1.8060502125 -0.2657687002
C 10.7942635405 -0.8590571956 0.2426058748
C 8.4888326838 -1.4992497979 -0.2427562586
C 7.5161689558 -2.4205401090 -0.6898908025
C 6.1654098667 -2.1023712525 -0.6666177622
C 5.7038323678 -0.8683137905 -0.1900663167
C 4.2633082527 -0.5647633462 -0.1428122499
C 3.2093103327 -1.4337680969 -0.0030798904
C 1.9426644187 -0.7833951751 0.0090860382
C 2.0412388718 0.5766493719 -0.1213511762
C 0.9365225644 1.5392391823 -0.1255341635
C 1.0429764203 2.9045663467 -0.1618254127
S -0.5166087995 3.6206092132 -0.1463672815
C -1.2183237682 2.0324215923 -0.0788931540
C -2.6622328600 1.8363867631 -0.0288696658
C -3.6593186841 2.7767797898 0.0503669143
C -4.9549982075 2.1980449895 0.1001785293
C -4.9307936055 0.8226294766 0.0589933048
C -6.0749063996 -0.1039518812 0.0946616497
C -5.9615485580 -1.4088480161 0.5919870996
C -7.0477900427 -2.2716492964 0.6375987367
C -8.3221552717 -1.8627619830 0.1864179246
N -9.4080393707 -2.7087188886 0.2341815354
C -10.6977360728 -2.2478252470 -0.2182139592
C -9.2495808765 -4.0571859346 0.7215991543
C -8.4355278457 -0.5480881333 -0.3180451211
C -7.3370864219 0.2983084300 -0.3611941842
S -3.3094931550 0.2376058774 -0.0543357266
N -0.3524973077 1.0653653436 -0.0781876631
S 3.6906572930 1.0635036497 -0.2775882931
C 6.6689693862 0.0454919534 0.2515486911
C 8.0250013118 -0.2515775230 0.2278436489
H 11.3577681648 -3.1761484062 -0.6287191178
H 9.9683684678 -3.3397601747 -1.7231007451
H 9.8506336648 -3.9189007082 -0.0396486041
H 11.8041287156 -1.2771360315 0.1429609993
H 10.6296464202 -0.6236708428 1.3107860882
H 10.7711324608 0.0930819533 -0.3169921527
H 7.8149232128 -3.3969033573 -1.0734034439
H 5.4457968446 -2.8339944135 -1.0457369303
H 3.3430059855 -2.5105643607 0.1181802384
H 0.9779339820 -1.2804424585 0.1198290291
H 1.9496305326 3.5078703831 -0.1949846356
H -3.4665750962 3.8518967471 0.0861543289
H -5.8767733242 2.7750276494 0.1930602301
H -4.9963456462 -1.7603081455 0.9707590581
H -6.8997230071 -3.2739388770 1.0413428288
H -10.6934800220 -1.9743171045 -1.2893400143
H -11.0449580084 -1.3664758863 0.3508691449
H -11.4391535102 -3.0452121778 -0.0806633563
H -10.2143098663 -4.5778691542 0.6712064137
H -8.9083788663 -4.0839023254 1.7725687131
H -8.5243947127 -4.6347775412 0.1197579992
H -9.3910097057 -0.1807181651 -0.6941221097
H -7.4628098445 1.3005194743 -0.7811682804
H 6.3506751876 1.0165313705 0.6445416041
H 8.7283248544 0.4980431444 0.5925187482
58
step=26 E=-2401.207235470097 Eh
C 10.2475337269 -3.1212731990 -0.6767981502
N 9.8227648516 -1.8037436498 -0.2734694502
C 10.7895108856 -0.8458195302 0.2016391569
C 8.4789136525 -1.4980698582 -0.2322088672
C 7.4999403532 -2.4226918105 -0.6572180151
C 6.1495834018 -2.1044788991 -0.6245608606
C 5.6954259643 -0.8633597316 -0.1599498256
C 4.2565069358 -0.5517115037 -0.1145971759
C 3.1940658408 -1.4179406743 -0.0307035495
C 1.9308072602 -0.7622684172 -0.0120015385
C 2.0425289061 0.6014092799 -0.0776610210
C 0.9405691681 1.5664588136 -0.0732502289
C 1.0435000716 2.9318732630 -0.1171700091
S -0.5168182631 3.6464226991 -0.0966593949
C -1.2161299713 2.0575095171 -0.0328526084
C -2.6593217916 1.8554252683 0.0068209281
C -3.6602262447 2.7949029868 0.0289299864
C -4.9535221462 2.2112041986 0.0746932890
C -4.9256143779 0.8354135911 0.0854184314
C -6.0656460074 -0.0963588952 0.1204586408
C -5.9545933121 -1.3915653707 0.6430214649
C -7.0327010347 -2.2645512092 0.6769457684
C -8.2983695323 -1.8752722698 0.1862726670
N -9.3765648997 -2.7315605326 0.2189659567
C -10.6604152077 -2.2867639548 -0.2646125383
C -9.2159596647 -4.0728809958 0.7240787785
C -8.4110757675 -0.5697149692 -0.3412792319
C -7.3198473793 0.2863439084 -0.3727218469
S -3.2999889419 0.2536459473 0.0303243781
N -0.3481232589 1.0920405414 -0.0249520791
S 3.6975425171 1.0859360907 -0.1748395722
C 6.6663453697 0.0511828633 0.2670821699
C 8.0217673461 -0.2469479127 0.2348547468
H 11.3434065934 -3.1738069906 -0.6523089882
H 9.9272236727 -3.3611621884 -1.7061035175
H 9.8558980572 -3.9128317029 -0.0107471459
H 11.8000485493 -1.2543131084 0.0742183108
H 10.6545866358 -0.6047669635 1.2727218326
H 10.7395381080 0.1018198417 -0.3631851719
H 7.7942850980 -3.4032063795 -1.0327691598
H 5.4268571268 -2.8408970973 -0.9864943729
H 3.3179046500 -2.5002127478 0.0360676945
H 0.9614390094 -1.2575812577 0.0557013576
H 1.9485013712 3.5365575974 -0.1580053601
H -3.4728356520 3.8713350365 0.0235303944
H -5.8781538553 2.7883648336 0.1231864197
H -4.9967896356 -1.7272309807 1.0529981969
H -6.8860020228 -3.2580013554 1.1017761694
H -10.6392042031 -2.0370252194 -1.3414422118
H -11.0205490749 -1.3945407067 0.2784178027
H -11.4000900309 -3.0843674271 -0.1212137285
H -10.1705154390 -4.6082262688 0.6455751680
H -8.9102953583 -4.0867813307 1.7862263930
H -8.4630031115 -4.6437544072 0.1512809406
H -9.3601394707 -0.2179769560 -0.7467547031
H -7.4458333784 1.2801214268 -0.8115822571
H 6.3539948832 1.0279920898 0.6496889688
H 8.7291764159 0.5048483125 0.5856896634
58
step=27 E=-2401.207258085629 Eh
C 10.2683543079 -3.1030408893 -0.6780954049
N 9.8358197183 -1.7922529519 -0.2609461879
C 10.7965254222 -0.8374437484 0.2333742651
C 8.4905004273 -1.4920787842 -0.2258348357
C 7.5184656595 -2.4161248191 -0.6682491998
C 6.1673669921 -2.1007534626 -0.6394380343
C 5.7036737216 -0.8673821830 -0.1635424495
C 4.2631591315 -0.5622095393 -0.1234882610
C 3.2038709519 -1.4333736845 -0.0522420814
C 1.9382062119 -0.7821331181 -0.0340390247
C 2.0434975958 0.5825086392 -0.0887928462
C 0.9395854014 1.5453401069 -0.0821170027
C 1.0457951708 2.9107944066 -0.1167701576
S -0.5135528761 3.6270324425 -0.0983473949
C -1.2150538339 2.0386807866 -0.0433195971
C -2.6589993261 1.8423341148 -0.0046133347
C -3.6590820912 2.7826058402 0.0214407515
C -4.9549955141 2.2047794839 0.0673155378
C -4.9281720437 0.8289334116 0.0745304522
C -6.0717950327 -0.0979287160 0.1126097224
C -5.9622284731 -1.3937658002 0.6333399042
C -7.0462783039 -2.2592270710 0.6725068196
C -8.3138411094 -1.8641559680 0.1910303406
N -9.3963782066 -2.7147323737 0.2308251372
C -10.6821088658 -2.2663089521 -0.2446703339
C -9.2374897879 -4.0559895094 0.7366518040
C -8.4239541483 -0.5579991285 -0.3356564753
C -7.3272962872 0.2908014160 -0.3726981429
S -3.3040838975 0.2427238421 0.0139662183
N -0.3493752368 1.0711906951 -0.0400074716
S 3.6971398004 1.0733534154 -0.1748740870
C 6.6683749590 0.0459376056 0.2797241086
C 8.0248465913 -0.2481648906 0.2523469090
H 11.3642223982 -3.1522556324 -0.6451490933
H 9.9572194262 -3.3310429390 -1.7130504843
H 9.8738681670 -3.9043648287 -0.0255883505
H 11.8091154229 -1.2415134976 0.1077841932
H 10.6537319597 -0.6105516985 1.3065877725
H 10.7482368845 0.1176407426 -0.3191845220
H 7.8182839519 -3.3914600551 -1.0532366594
H 5.4495582040 -2.8353691508 -1.0149665399
H 3.3313363951 -2.5157620858 0.0075358965
H 0.9704994095 -1.2818476382 0.0257079621
H 1.9520446796 3.5142942833 -0.1508059105
H -3.4688242574 3.8585875032 0.0196145100
H -5.8780388112 2.7844637114 0.1197412250
H -5.0036330120 -1.7353336888 1.0368644117
H -6.9020357963 -3.2538368785 1.0955314742
H -10.6678662697 -2.0170138713 -1.3217704873
H -11.0355156726 -1.3727253652 0.3005683449
H -11.4235110203 -3.0614753194 -0.0957575586
H -10.1947466667 -4.5877232678 0.6651403108
H -8.9248831366 -4.0690805945 1.7967970143
H -8.4902631727 -4.6309300830 0.1602497669
H -9.3736860490 -0.2006036728 -0.7349708896
H -7.4502673858 1.2855927324 -0.8102611637
H 6.3506143733 1.0169539256 0.6726633242
H 8.7272339585 0.5020047119 0.6169355987
58
step=28 E=-2401.207272468449 Eh
C 10.2747056060 -3.0954933668 -0.6784600837
N 9.8389643472 -1.7925406307 -0.2402524048
C 10.7951193529 -0.8488244972 0.2839234555
C 8.4936308946 -1.4914831206 -0.2152065521
C 7.5250393929 -2.4062253868 -0.6842250567
C 6.1734024292 -2.0925303563 -0.6641853362
C 5.7070372252 -0.8673049172 -0.1700538482
C 4.2658073125 -0.5653056167 -0.1384338931
C 3.2068706583 -1.4380323928 -0.0837890225
C 1.9400578321 -0.7887234701 -0.0669490657
C 2.0439777576 0.5765242306 -0.1080956197
C 0.9399337748 1.5393511413 -0.0981672350
C 1.0475460231 2.9049358776 -0.1212932540
S -0.5111573331 3.6222879634 -0.1029235754
C -1.2141900244 2.0342079223 -0.0594269849
C -2.6583430078 1.8396523697 -0.0209346749
C -3.6559816405 2.7822742433 0.0116130061
C -4.9523063718 2.2053952094 0.0583243869
C -4.9288388344 0.8293955833 0.0603618828
C -6.0737091863 -0.0955889829 0.1027325050
C -5.9640276917 -1.3930267521 0.6197289283
C -7.0485862905 -2.2575627740 0.6685754531
C -8.3188734609 -1.8567107083 0.1995370543
N -9.4039811173 -2.7035660407 0.2485371723
C -10.6918997213 -2.2500026901 -0.2159408534
C -9.2457749333 -4.0454097798 0.7533370817
C -8.4287872218 -0.5493221056 -0.3245203290
C -7.3317761937 0.2984380459 -0.3713446073
S -3.3061406631 0.2409786637 -0.0084119357
N -0.3494732229 1.0658707222 -0.0627186644
S 3.6976292690 1.0695925828 -0.1798172108
C 6.6673998028 0.0382804308 0.2983746022
C 8.0240368471 -0.2557015101 0.2798127689
H 11.3699963306 -3.1476485300 -0.6319186849
H 9.9767359057 -3.3022705728 -1.7218636040
H 9.8700891777 -3.9088885227 -0.0474705208
H 11.8085334555 -1.2521861265 0.1623967604
H 10.6400731639 -0.6428112801 1.3596930682
H 10.7550320446 0.1172593714 -0.2500819475
H 7.8286124857 -3.3747614803 -1.0833474379
H 5.4590858743 -2.8198320476 -1.0608350785
H 3.3352217888 -2.5208680426 -0.0320618409
H 0.9725874907 -1.2902723191 -0.0174263278
H 1.9545545319 3.5078850411 -0.1478932353
H -3.4638075806 3.8580396684 0.0147384123
H -5.8742078824 2.7864701317 0.1167504494
H -5.0024808052 -1.7377519293 1.0135760177
H -6.9024999563 -3.2532760348 1.0886757966
H -10.6858031580 -1.9989029700 -1.2926985976
H -11.0375354820 -1.3561384631 0.3339026684
H -11.4350851814 -3.0427758834 -0.0622360399
H -10.2059027488 -4.5733276169 0.6907030516
H -8.9234880810 -4.0590690301 1.8105944116
H -8.5059572979 -4.6238811559 0.1707852470
H -9.3813574491 -0.1890404109 -0.7145547494
H -7.4561604703 1.2941732175 -0.8066719581
H 6.3458339804 1.0017376851 0.7068341678
H 8.7229071882 0.4873092272 0.6656423914
58
step=29 E=-2401.207276397248 Eh
C 10.2722423265 -3.1004102597 -0.7005170957
N 9.8378724452 -1.8035605512 -0.2430442096
C 10.7944673072 -0.8702305405 0.2982905829
C 8.4930932421 -1.5001781273 -0.2151445170
C 7.5228576004 -2.4067109691 -0.6962575544
C 6.1721228308 -2.0889319821 -0.6719947654
C 5.7085663495 -0.8692526532 -0.1617915036
C 4.2681728452 -0.5642695416 -0.1263443041
C 3.2110367898 -1.4380124156 -0.0560506347
C 1.9447769753 -0.7872096387 -0.0437442885
C 2.0481654249 0.5775386473 -0.1019675966
C 0.9435216002 1.5399199816 -0.0993723165
C 1.0474950137 2.9055661134 -0.1341813686
S -0.5119798977 3.6210027134 -0.1168904437
C -1.2118881508 2.0319251414 -0.0624061786
C -2.6559992799 1.8363141747 -0.0247939800
C -3.6523752360 2.7803041382 0.0056349531
C -4.9491468910 2.2045181205 0.0515819587
C -4.9275116679 0.8284358730 0.0544031405
C -6.0744379986 -0.0941403893 0.0968569280
C -5.9687109967 -1.3916215186 0.6145552463
C -7.0587802749 -2.2493406003 0.6656032918
C -8.3285041932 -1.8432822808 0.1995488852
N -9.4174532169 -2.6848801690 0.2527621595
C -10.7019350462 -2.2257409576 -0.2157183412
C -9.2674202275 -4.0249489580 0.7649725861
C -8.4339767777 -0.5361777612 -0.3260145046
C -7.3319087377 0.3047027276 -0.3751640883
S -3.3053373116 0.2381534620 -0.0095864296
N -0.3452741128 1.0651557119 -0.0581150708
S 3.7011236570 1.0704580050 -0.1857788874
C 6.6705227376 0.0285418462 0.3179894149
C 8.0262544614 -0.2693085996 0.2945900124
H 11.3669957166 -3.1573140457 -0.6471426082
H 9.9806595459 -3.2883277661 -1.7493064749
H 9.8603928381 -3.9230122746 -0.0863468661
H 11.8070465310 -1.2758858978 0.1772961842
H 10.6338328717 -0.6777460302 1.3757246267
H 10.7607827040 0.1028576810 -0.2233542983
H 7.8240740146 -3.3705117304 -1.1084631892
H 5.4552796631 -2.8081061039 -1.0789578604
H 3.3406888811 -2.5199869966 0.0110796277
H 0.9774334137 -1.2879715786 0.0159898946
H 1.9533372288 3.5099487346 -0.1672732503
H -3.4589832876 3.8558807203 0.0077539622
H -5.8706023169 2.7864732481 0.1082381192
H -5.0077929779 -1.7413988331 1.0056046256
H -6.9170695802 -3.2457732827 1.0855822590
H -10.6897022636 -1.9709659270 -1.2914654931
H -11.0479669475 -1.3327726256 0.3355580107
H -11.4480810318 -3.0170004734 -0.0687577476
H -10.2322827218 -4.5451398227 0.7111790017
H -8.9394547598 -4.0344156920 1.8204905999
H -8.5356715983 -4.6136438268 0.1823023922
H -9.3855669656 -0.1710839588 -0.7139610111
H -7.4517526562 1.3006024353 -0.8113607071
H 6.3508502090 0.9870887797 0.7393771840
H 8.7273652056 0.4671282438 0.6889146627
58
step=30 E=-2401.207279178928 Eh
C 10.2708360945 -3.1026766513 -0.7032494259
N 9.8371458551 -1.8056773648 -0.2457808629
C 10.7949852242 -0.8698485943 0.2885513018
C 8.4922155605 -1.5038463960 -0.2123755160
C 7.5216733928 -2.4138213414 -0.6861255293
C 6.1705701794 -2.0979678831 -0.6580594136
C 5.7063351437 -0.8773465465 -0.1507600423
C 4.2661751199 -0.5712816966 -0.1120015351
C 3.2064824056 -1.4413191775 -0.0347689893
C 1.9409276312 -0.7892323458 -0.0236934944
C 2.0476445597 0.5748971077 -0.0888943130
C 0.9446102841 1.5389999364 -0.0895180720
C 1.0522529642 2.9042518869 -0.1281909751
S -0.5061838791 3.6221487778 -0.1139455006
C -1.2101076676 2.0349269165 -0.0554112780
C -2.6544683283 1.8406476374 -0.0201882635
C -3.6511801561 2.7844641737 0.0053997083
C -4.9488452141 2.2106508929 0.0486198283
C -4.9270336088 0.8344965309 0.0535732625
C -6.0749317153 -0.0870096625 0.0939822382
C -5.9703657910 -1.3849853146 0.6105463709
C -7.0600766401 -2.2431648914 0.6617692425
C -8.3294859534 -1.8355201108 0.1964267228
N -9.4190403331 -2.6763413174 0.2494923610
C -10.7028910446 -2.2161190876 -0.2196915251
C -9.2701709095 -4.0161181262 0.7627008763
C -8.4338905156 -0.5279671314 -0.3284339160
C -7.3321289686 0.3132688537 -0.3778325883
S -3.3047712179 0.2430115348 -0.0036626097
N -0.3451369588 1.0667392979 -0.0479864126
S 3.7016338444 1.0639154321 -0.1789574233
C 6.6693359516 0.0227993498 0.3221590023
C 8.0257461114 -0.2718566022 0.2949546493
H 11.3657863781 -3.1586845886 -0.6539145378
H 9.9751675344 -3.2918418087 -1.7506339902
H 9.8620884349 -3.9250914106 -0.0867965568
H 11.8076269500 -1.2738374041 0.1627874572
H 10.6397517033 -0.6754507741 1.3664182359
H 10.7566584285 0.1020216295 -0.2348862976
H 7.8229832811 -3.3785023698 -1.0960797618
H 5.4535395149 -2.8196500283 -1.0598323010
H 3.3341483723 -2.5230378602 0.0380442495
H 0.9728226066 -1.2878586149 0.0403572598
H 1.9593725489 3.5065741345 -0.1622699718
H -3.4573471931 3.8598841671 0.0056253307
H -5.8698885064 2.7935321107 0.1013713917
H -5.0093919240 -1.7357453606 1.0004046686
H -6.9183066141 -3.2400563241 1.0805019934
H -10.6892189073 -1.9597217842 -1.2950189802
H -11.0497720445 -1.3238894156 0.3322954171
H -11.4490253352 -3.0076170196 -0.0749046299
H -10.2354776330 -4.5353744365 0.7098924696
H -8.9416511074 -4.0249960196 1.8180436961
H -8.5394041758 -4.6060190002 0.1800524423
H -9.3853379033 -0.1625345592 -0.7161758209
H -7.4517127474 1.3089858580 -0.8143726965
H 6.3495264517 0.9823815443 0.7409499431
H 8.7269807307 0.4674123223 0.6835333579
58
step=31 E=-2401.207281781386 Eh
C 10.2616745323 -3.1145248926 -0.7003155516
N 9.8315591503 -1.8173236748 -0.2403127913
C 10.7934444954 -0.8821004780 0.2875960186
C 8.4873873598 -1.5129450221 -0.2029672784
C 7.5138861525 -2.4217658945 -0.6728292753
C 6.1634947876 -2.1033877966 -0.6423852596
C 5.7033269627 -0.8808332710 -0.1360269848
C 4.2636060547 -0.5725771155 -0.0974383504
C 3.2018500915 -1.4401209365 -0.0213974429
C 1.9375530510 -0.7857207927 -0.0106262883
C 2.0466430522 0.5781826759 -0.0762525944
C 0.9454464156 1.5443486078 -0.0787566841
C 1.0561744983 2.9093755661 -0.1175665005
S -0.5010641237 3.6301110204 -0.1093176506
C -1.2081695955 2.0443592314 -0.0489824513
C -2.6527588039 1.8520453931 -0.0161609964
C -3.6486335198 2.7969764145 0.0015522389
C -4.9464200645 2.2233261694 0.0426574193
C -4.9262266523 0.8471224412 0.0543234949
C -6.0741022656 -0.0745248306 0.0950206136
C -5.9697888551 -1.3729939183 0.6101614653
C -7.0595137131 -2.2311410157 0.6605111939
C -8.3293687734 -1.8235805224 0.1962502657
N -9.4187852686 -2.6647382025 0.2482298061
C -10.7038758035 -2.2058332356 -0.2188921121
C -9.2683911105 -4.0044095848 0.7610354712
C -8.4341724722 -0.5154007583 -0.3270705087
C -7.3320004811 0.3254242196 -0.3754382894
S -3.3039837548 0.2547828144 0.0050474310
N -0.3451647436 1.0744458442 -0.0397223904
S 3.7017952375 1.0635386367 -0.1661796079
C 6.6686976603 0.0182615633 0.3341097584
C 8.0243760208 -0.2795861784 0.3043039361
H 11.3566718715 -3.1722208414 -0.6547943099
H 9.9617163948 -3.3024129727 -1.7467291255
H 9.8541342442 -3.9369297628 -0.0831296780
H 11.8050841927 -1.2863044092 0.1547683999
H 10.6457017953 -0.6875505060 1.3664870581
H 10.7519433667 0.0897368310 -0.2355567932
H 7.8124359787 -3.3876156801 -1.0819493832
H 5.4440597742 -2.8242960065 -1.0410318824
H 3.3273588995 -2.5220392024 0.0510621447
H 0.9684905452 -1.2824271958 0.0527979693
H 1.9645122296 3.5099137280 -0.1497209409
H -3.4543833831 3.8723004860 -0.0031430267
H -5.8669617456 2.8073932653 0.0892646782
H -5.0088980170 -1.7248322861 0.9991168963
H -6.9170472031 -3.2286157656 1.0774407354
H -10.6915455420 -1.9472845867 -1.2937173276
H -11.0521005144 -1.3152981199 0.3349984859
H -11.4481814561 -2.9991222946 -0.0750587353
H -10.2330802012 -4.5247012099 0.7084287275
H -8.9393750810 -4.0132098771 1.8162325478
H -8.5373416607 -4.5932248844 0.1777046887
H -9.3854798216 -0.1496544998 -0.7147980259
H -7.4519290775 1.3210510815 -0.8119382364
H 6.3516274822 0.9791980910 0.7518675421
H 8.7279330914 0.4586185251 0.6904865451
58
step=32 E=-2401.207283702940 Eh
C 10.2468205838 -3.1365642919 -0.6970450810
N 9.8211779501 -1.8408528765 -0.2286052586
C 10.7867838857 -0.9088876090 0.2987875842
C 8.4780464119 -1.5323591622 -0.1895568999
C 7.5011471941 -2.4363070213 -0.6620635102
C 6.1517407013 -2.1139649357 -0.6301272927
C 5.6961623690 -0.8913882435 -0.1196564788
C 4.2574477369 -0.5781192447 -0.0810037437
C 3.1936347406 -1.4430697302 -0.0050908204
C 1.9317537845 -0.7838976322 0.0050707327
C 2.0443364177 0.5796701422 -0.0623638969
C 0.9459696217 1.5492075949 -0.0675235964
C 1.0603073563 2.9139089866 -0.1076330888
S -0.4945880727 3.6397352767 -0.1044923548
C -1.2055482621 2.0558152843 -0.0425576834
C -2.6509069083 1.8690715657 -0.0117826072
C -3.6451808070 2.8157786928 -0.0029021095
C -4.9442766133 2.2447296628 0.0371918356
C -4.9268825139 0.8686207562 0.0574955488
C -6.0755728599 -0.0519704640 0.0996734746
C -5.9712705613 -1.3501150598 0.6157022352
C -7.0599640474 -2.2095299885 0.6657455213
C -8.3295178529 -1.8026640986 0.2000445649
N -9.4181141404 -2.6449823497 0.2502593461
C -10.7035752405 -2.1872202600 -0.2169946702
C -9.2669223085 -3.9841977574 0.7641084470
C -8.4346848320 -0.4943757900 -0.3230037694
C -7.3334085375 0.3476887425 -0.3711098545
S -3.3055119007 0.2734458783 0.0157599290
N -0.3459033989 1.0829774477 -0.0303096900
S 3.7008772930 1.0597580902 -0.1520610559
C 6.6646189861 0.0029351191 0.3533590701
C 8.0193138438 -0.2992587579 0.3224568623
H 11.3415887143 -3.1985608077 -0.6510639956
H 9.9464959268 -3.3171613623 -1.7447940520
H 9.8362048539 -3.9612967759 -0.0850938004
H 11.7972735673 -1.3142717696 0.1606506948
H 10.6437179578 -0.7177156447 1.3789419388
H 10.7451166501 0.0650070418 -0.2207010656
H 7.7963521261 -3.4018976151 -1.0744137203
H 5.4296403256 -2.8313934102 -1.0304480112
H 3.3160308287 -2.5253970510 0.0681690413
H 0.9610070567 -1.2774056190 0.0686521059
H 1.9704399830 3.5119482759 -0.1385042288
H -3.4489102135 3.8907625237 -0.0138474365
H -5.8637596374 2.8310653249 0.0772309832
H -5.0104664061 -1.7013820268 1.0055529058
H -6.9167940266 -3.2068794031 1.0829091292
H -10.6905051355 -1.9257071964 -1.2910909176
H -11.0541498696 -1.2988622517 0.3390099541
H -11.4465818989 -2.9824185273 -0.0763355937
H -10.2309760847 -4.5057119004 0.7103139157
H -8.9392461591 -3.9921175230 1.8197656647
H -8.5344518570 -4.5724303810 0.1819384875
H -9.3861334062 -0.1294570050 -0.7114577283
H -7.4540093781 1.3430370246 -0.8082592865
H 6.3506527723 0.9635162575 0.7744309728
H 8.7253691788 0.4351112541 0.7115562075
58
step=33 E=-2401.207285671225 Eh
C 10.2413381241 -3.1513678355 -0.6856135635
N 9.8169691994 -1.8559286427 -0.2150323996
C 10.7833195191 -0.9257094549 0.3145133754
C 8.4743599081 -1.5447375200 -0.1792478211
C 7.4964184486 -2.4459121641 -0.6551375164
C 6.1476060519 -2.1208892612 -0.6250911496
C 5.6937468621 -0.8980766092 -0.1137189188
C 4.2556153368 -0.5821290404 -0.0765225635
C 3.1904739832 -1.4455363441 -0.0016893170
C 1.9294851837 -0.7845836286 0.0074441259
C 2.0448767444 0.5788118485 -0.0595797723
C 0.9477730483 1.5497791925 -0.0651008594
C 1.0638254685 2.9143460290 -0.1034335607
S -0.4901423316 3.6421987189 -0.0993962715
C -1.2031239922 2.0590619904 -0.0413729505
C -2.6487164041 1.8741723751 -0.0107595992
C -3.6412570336 2.8226084923 -0.0021251322
C -4.9411150151 2.2532207468 0.0388647858
C -4.9258034936 0.8771566382 0.0596949303
C -6.0759155520 -0.0414341906 0.1028762489
C -5.9730731117 -1.3407753757 0.6163709669
C -7.0638045116 -2.1976013754 0.6664130085
C -8.3333199423 -1.7875162727 0.2034418023
N -9.4237129908 -2.6274601240 0.2536969857
C -10.7090931318 -2.1658404381 -0.2099280010
C -9.2750751920 -3.9678645292 0.7652795815
C -8.4366984111 -0.4779674626 -0.3165894973
C -7.3336232589 0.3616679458 -0.3649564390
S -3.3055310707 0.2794496963 0.0168494371
N -0.3447412170 1.0851674105 -0.0296434123
S 3.7020991809 1.0566766810 -0.1475628510
C 6.6632331292 -0.0062728593 0.3620454195
C 8.0172741305 -0.3113034222 0.3334677143
H 11.3357968360 -3.2161476829 -0.6355578737
H 9.9445107867 -3.3288904724 -1.7349719240
H 9.8264223572 -3.9764564576 -0.0771143523
H 11.7933294402 -1.3327889612 0.1777318632
H 10.6389540109 -0.7352166383 1.3946098957
H 10.7442200657 0.0488251977 -0.2041519927
H 7.7902289042 -3.4116965356 -1.0681556394
H 5.4247221393 -2.8365053516 -1.0275316143
H 3.3111849849 -2.5281227614 0.0716096510
H 0.9577701977 -1.2764513410 0.0702132369
H 1.9747534661 3.5113405780 -0.1325324052
H -3.4432560824 3.8973105315 -0.0133580905
H -5.8598313463 2.8408205561 0.0792891609
H -5.0124154191 -1.6946688369 1.0043476626
H -6.9222491783 -3.1959642985 1.0818324026
H -10.6972246655 -1.9009888512 -1.2831707904
H -11.0568758089 -1.2785839974 0.3496259641
H -11.4536759861 -2.9599930072 -0.0707665878
H -10.2405155402 -4.4870186813 0.7114842459
H -8.9464158650 -3.9782670510 1.8205946698
H -8.5444875914 -4.5569463612 0.1815729548
H -9.3882448733 -0.1099358624 -0.7020248394
H -7.4530271363 1.3585391257 -0.7990805995
H 6.3505439210 0.9542765210 0.7841793528
H 8.7241020532 0.4209358119 0.7254078030
58
step=34 E=-2401.207287450035 Eh
C 10.2409827842 -3.1555962349 -0.6806471402
N 9.8164741942 -1.8596661470 -0.2115449573
C 10.7826232523 -0.9291242769 0.3175480691
C 8.4738954976 -1.5480874877 -0.1768939835
C 7.4960459639 -2.4493511689 -0.6525981909
C 6.1473341450 -2.1237384391 -0.6231066079
C 5.6933525856 -0.9005537195 -0.1127644889
C 4.2554107872 -0.5840779887 -0.0755565429
C 3.1898164857 -1.4469193602 -0.0001164443
C 1.9291754695 -0.7852960984 0.0089043746
C 2.0451619591 0.5780121803 -0.0583111231
C 0.9487640906 1.5497536350 -0.0636136055
C 1.0649602436 2.9143079575 -0.1017063046
S -0.4890039623 3.6422404590 -0.0967561330
C -1.2025927710 2.0593407448 -0.0395717086
C -2.6480938609 1.8735872064 -0.0089929759
C -3.6403069578 2.8223395554 0.0002329203
C -4.9404439386 2.2536587587 0.0411873561
C -4.9252211659 0.8775657955 0.0612871654
C -6.0762234378 -0.0398774022 0.1039702637
C -5.9744367611 -1.3393225393 0.6175015872
C -7.0662065276 -2.1948669409 0.6671774855
C -8.3351407583 -1.7835209582 0.2037584228
N -9.4263006386 -2.6224127397 0.2539113711
C -10.7105491092 -2.1582716354 -0.2102868015
C -9.2800748928 -3.9630840765 0.7655782951
C -8.4372205389 -0.4739297812 -0.3163387952
C -7.3332936791 0.3645707360 -0.3643788577
S -3.3052640636 0.2789517466 0.0185125163
N -0.3439995489 1.0856319028 -0.0280226470
S 3.7026075653 1.0549854561 -0.1465464805
C 6.6629324854 -0.0086328944 0.3625645937
C 8.0168369568 -0.3141835629 0.3345546413
H 11.3353751244 -3.2206732575 -0.6295653050
H 9.9451716685 -3.3338343756 -1.7301246972
H 9.8251170216 -3.9799543202 -0.0718146189
H 11.7925644884 -1.3368273108 0.1821879660
H 10.6372968914 -0.7373443499 1.3972573962
H 10.7441682894 0.0447042959 -0.2024518547
H 7.7896882391 -3.4154731984 -1.0648596503
H 5.4245115565 -2.8394993947 -1.0253935910
H 3.3098595773 -2.5295366284 0.0734945266
H 0.9572614107 -1.2766862014 0.0719517807
H 1.9759279057 3.5111723141 -0.1308499823
H -3.4418403208 3.8969260872 -0.0104832918
H -5.8590629690 2.8413702667 0.0819512193
H -5.0141716091 -1.6938528460 1.0058183784
H -6.9260659190 -3.1933309354 1.0828208023
H -10.6975441119 -1.8933598189 -1.2834690272
H -11.0569159298 -1.2704243144 0.3491899117
H -11.4567680710 -2.9509605200 -0.0716705556
H -10.2462728026 -4.4807222917 0.7110451847
H -8.9522709816 -3.9740653421 1.8211409415
H -8.5499145983 -4.5533005692 0.1825091375
H -9.3883357920 -0.1049334036 -0.7017859718
H -7.4514716880 1.3617237331 -0.7981140817
H 6.3505027245 0.9522791867 0.7840024744
H 8.7237307974 0.4181541679 0.7261754444
58
step=35 E=-2401.207289892958 Eh
C 10.2371863678 -3.1680584257 -0.6695676503
N 9.8138307501 -1.8710988627 -0.2022786961
C 10.7807076675 -0.9406434118 0.3254931731
C 8.4716622926 -1.5576147825 -0.1696504723
C 7.4932961282 -2.4581864494 -0.6454852709
C 6.1448989199 -2.1310319707 -0.6174482679
C 5.6916829379 -0.9069119200 -0.1086941649
C 4.2541265714 -0.5887454707 -0.0719892805
C 3.1874910804 -1.4502712145 0.0041748344
C 1.9274963181 -0.7874140892 0.0128219553
C 2.0452468222 0.5757230086 -0.0547467912
C 0.9498211304 1.5485486144 -0.0596769663
C 1.0676474812 2.9129842169 -0.0970669899
S -0.4854729088 3.6427275126 -0.0905465431
C -1.2009449501 2.0605690209 -0.0353366901
C -2.6467128353 1.8767671715 -0.0049899031
C -3.6375430273 2.8269489635 0.0048291793
C -4.9385704747 2.2603032604 0.0457780721
C -4.9254769712 0.8841585922 0.0650117879
C -6.0778862586 -0.0316601590 0.1069871293
C -5.9783372935 -1.3314158255 0.6202243157
C -7.0714075842 -2.1853187531 0.6692579329
C -8.3394878530 -1.7720480645 0.2051254808
N -9.4318879604 -2.6093542768 0.2546225787
C -10.7153571021 -2.1430471991 -0.2096466538
C -9.2880505859 -3.9502693268 0.7663373900
C -8.4394210067 -0.4621967815 -0.3147034048
C -7.3341400345 0.3746090295 -0.3619948469
S -3.3063815028 0.2831280714 0.0224089354
N -0.3434908891 1.0858635240 -0.0243371047
S 3.7031942797 1.0509163090 -0.1434751121
C 6.6619713912 -0.0156099331 0.3663526595
C 8.0155876008 -0.3225427765 0.3398341758
H 11.3313702749 -3.2348453121 -0.6163489159
H 9.9431165380 -3.3466328860 -1.7194740239
H 9.8187844034 -3.9911883020 -0.0608371030
H 11.7902054396 -1.3501131975 0.1921747786
H 10.6345065647 -0.7462019063 1.4045922566
H 10.7440063638 0.0319592823 -0.1969024013
H 7.7862153893 -3.4250069687 -1.0565996752
H 5.4217504614 -2.8464096805 -1.0197993851
H 3.3062776732 -2.5329760399 0.0783837299
H 0.9550422637 -1.2776883147 0.0762082691
H 1.9792887310 3.5088154441 -0.1260070516
H -3.4373917727 3.9012209868 -0.0053027926
H -5.8563274593 2.8493154734 0.0869374645
H -5.0187899869 -1.6872218412 1.0091155346
H -6.9331747233 -3.1839707365 1.0850935402
H -10.7016684865 -1.8777110297 -1.2827096780
H -11.0606273319 -1.2549544153 0.3501163306
H -11.4627500553 -2.9347019466 -0.0716139614
H -10.2548004220 -4.4666710754 0.7103240629
H -8.9617330227 -3.9619191609 1.8223745799
H -8.5577901270 -4.5412310140 0.1841846144
H -9.3898633348 -0.0915867784 -0.7002158943
H -7.4506963682 1.3722169179 -0.7950720837
H 6.3502671555 0.9460421053 0.7866206458
H 8.7229214597 0.4094493306 0.7312922210
58
step=36 E=-2401.207291495906 Eh
C 10.2321687032 -3.1776952995 -0.6634391427
N 9.8106206250 -1.8796253520 -0.1976546965
C 10.7788074894 -0.9495799994 0.3283679483
C 8.4689038495 -1.5642786431 -0.1653380530
C 7.4894674721 -2.4641302389 -0.6402814256
C 6.1414903153 -2.1352564990 -0.6124569566
C 5.6897543784 -0.9101091580 -0.1048657641
C 4.2525235901 -0.5904530972 -0.0681778177
C 3.1850050456 -1.4508373105 0.0085253498
C 1.9256783422 -0.7867371981 0.0170248956
C 2.0447224868 0.5762653854 -0.0509419759
C 0.9501993428 1.5501172647 -0.0559391224
C 1.0691441882 2.9144706521 -0.0929972887
S -0.4833835992 3.6454736101 -0.0866054888
C -1.2002019263 2.0638754965 -0.0320317735
C -2.6460938141 1.8809382073 -0.0023623448
C -3.6365382135 2.8315666272 0.0073918849
C -4.9378296741 2.2655365053 0.0478823104
C -4.9253632620 0.8893761289 0.0667823329
C -6.0782074357 -0.0259730079 0.1081648798
C -5.9794016016 -1.3256774946 0.6216709045
C -7.0726603488 -2.1793139955 0.6703084485
C -8.3403342731 -1.7657535772 0.2053050108
N -9.4329870032 -2.6027589569 0.2543579092
C -10.7162180792 -2.1362713600 -0.2104087076
C -9.2896428893 -3.9435353183 0.7665121326
C -8.4395652474 -0.4559559841 -0.3148089326
C -7.3340648839 0.3806067338 -0.3616779249
S -3.3065242882 0.2876063482 0.0246332075
N -0.3435014802 1.0885051700 -0.0210013993
S 3.7031651787 1.0497569230 -0.1398773485
C 6.6611316165 -0.0194868263 0.3692031563
C 8.0143927291 -0.3280636363 0.3428121961
H 11.3262228788 -3.2460535952 -0.6097813499
H 9.9382087849 -3.3568889861 -1.7132677284
H 9.8123226424 -3.9995712518 -0.0540232179
H 11.7877264840 -1.3607362186 0.1959129914
H 10.6328208254 -0.7528847561 1.4070841644
H 10.7435051305 0.0220507536 -0.1958987093
H 7.7812060596 -3.4316532390 -1.0505656170
H 5.4174840813 -2.8500658320 -1.0141842933
H 3.3026859213 -2.5336213847 0.0830531497
H 0.9527756443 -1.2760603974 0.0806436749
H 1.9812649581 3.5095636948 -0.1216452388
H -3.4359004734 3.9057453091 -0.0024152356
H -5.8553355223 2.8549255581 0.0888643916
H -5.0201893871 -1.6816335298 1.0112241210
H -6.9349888854 -3.1778607452 1.0865464987
H -10.7020946781 -1.8710392974 -1.2835031689
H -11.0616194292 -1.2480774228 0.3491086295
H -11.4636950148 -2.9278318674 -0.0725471101
H -10.2562889763 -4.4599707402 0.7096346682
H -8.9643546277 -3.9549899408 1.8228894611
H -8.5587963020 -4.5345360929 0.1851622204
H -9.3897072283 -0.0851395162 -0.7008226860
H -7.4501542686 1.3782140920 -0.7948655258
H 6.3506172755 0.9429644936 0.7885069623
H 8.7226518447 0.4034955840 0.7333465136
58
step=37 E=-2401.207292584167 Eh
C 10.2283544031 -3.1836489235 -0.6602877979
N 9.8080495565 -1.8848787369 -0.1953898232
C 10.7772261577 -0.9552079131 0.3294344888
C 8.4666215958 -1.5683331275 -0.1629693287
C 7.4863567100 -2.4676572182 -0.6372046055
C 6.1386696708 -2.1376709509 -0.6093822079
C 5.6880600882 -0.9118255216 -0.1024411880
C 4.2510517296 -0.5911363203 -0.0657849994
C 3.1828915938 -1.4506868943 0.0111520215
C 1.9240806134 -0.7856401392 0.0195799287
C 2.0440272727 0.5772641899 -0.0486645288
C 0.9501783888 1.5518729880 -0.0538004989
C 1.0698927415 2.9161716294 -0.0908074992
S -0.4822229482 3.6480619471 -0.0847980383
C -1.1998989337 2.0668768584 -0.0302043882
C -2.6458610404 1.8845291693 -0.0009038268
C -3.6362321656 2.8352558418 0.0087863951
C -4.9375909707 2.2693701919 0.0489368338
C -4.9253030558 0.8931984473 0.0676759139
C -6.0780807453 -0.0222541032 0.1086935904
C -5.9792743439 -1.3218617792 0.6223857917
C -7.0723227328 -2.1757655423 0.6707661152
C -8.3398914070 -1.7624898871 0.2052361519
N -9.4323685709 -2.5997546172 0.2539899906
C -10.7156070409 -2.1336471626 -0.2110998281
C -9.2887489231 -3.9403940719 0.7663705679
C -8.4392147506 -0.4527633243 -0.3150787114
C -7.3338612158 0.3840150847 -0.3616534635
S -3.3065078718 0.2913065964 0.0258251331
N -0.3437616916 1.0909979263 -0.0190696558
S 3.7028389786 1.0494669075 -0.1377370095
C 6.6601977651 -0.0216948310 0.3709538951
C 8.0132088273 -0.3314109124 0.3444673932
H 11.3223420380 -3.2529785779 -0.6066462839
H 9.9341782336 -3.3633085427 -1.7099766273
H 9.8077969283 -4.0047336043 -0.0503013831
H 11.7857330482 -1.3674644144 0.1972972494
H 10.6315994049 -0.7571418006 1.4079470599
H 10.7428098094 0.0158640373 -0.1959178583
H 7.7772692244 -3.4356206687 -1.0470213989
H 5.4140045738 -2.8520522202 -1.0106280327
H 3.2997879023 -2.5335302048 0.0858442067
H 0.9508471255 -1.2742581505 0.0833170562
H 1.9823478795 3.5107451566 -0.1193319057
H -3.4354993617 3.9094125530 -0.0008553247
H -5.8550219025 2.8588748599 0.0897519429
H -5.0201525893 -1.6776198925 1.0123227541
H -6.9345536887 -3.1742030226 1.0872013177
H -10.7013065257 -1.8684665414 -1.2842117789
H -11.0613933880 -1.2455022479 0.3482573780
H -11.4628502580 -2.9254216208 -0.0733299022
H -10.2551250009 -4.4572599610 0.7090456080
H -8.9640020667 -3.9515985395 1.8229231127
H -8.5573628745 -4.5311276551 0.1854396139
H -9.3892896903 -0.0821981608 -0.7014882301
H -7.4500181104 1.3815288339 -0.7950301613
H 6.3505293271 0.9412869520 0.7896639466
H 8.7221308654 0.3998377440 0.7343275084
58
step=38 E=-2401.207293969802 Eh
C 10.2232715598 -3.1934315267 -0.6541286876
N 9.8046606602 -1.8935420462 -0.1908605887
C 10.7751177892 -0.9640642818 0.3319120526
C 8.4636241749 -1.5753739671 -0.1584410266
C 7.4822025274 -2.4741035138 -0.6314204385
C 6.1349159874 -2.1425380916 -0.6036615738
C 5.6858365364 -0.9155956010 -0.0979918785
C 4.2492143206 -0.5932177245 -0.0613335353
C 3.1801578884 -1.4516071673 0.0161190586
C 1.9221041227 -0.7851557627 0.0244238368
C 2.0434888190 0.5775933393 -0.0444168779
C 0.9505993281 1.5532732050 -0.0498302627
C 1.0716609497 2.9174568911 -0.0867757146
S -0.4798212071 3.6507318508 -0.0813810238
C -1.1990129091 2.0702530348 -0.0268160800
C -2.6451129904 1.8889319272 0.0018718209
C -3.6349422464 2.8402326362 0.0114163170
C -4.9366296282 2.2750504228 0.0510239547
C -4.9251131103 0.8988674515 0.0695395403
C -6.0783339193 -0.0160489166 0.1099890193
C -5.9803894237 -1.3155843351 0.6240160829
C -7.0737589776 -2.1691003817 0.6718407500
C -8.3408515959 -1.7554543759 0.2053626985
N -9.4336829532 -2.5923075519 0.2534615829
C -10.7165420911 -2.1257928442 -0.2122412654
C -9.2908351506 -3.9329032829 0.7661371093
C -8.4393207063 -0.4457685092 -0.3152231539
C -7.3336501401 0.3906274668 -0.3612502452
S -3.3066544334 0.2960817888 0.0281527714
N -0.3437647547 1.0935945570 -0.0154638740
S 3.7027949880 1.0479760927 -0.1338397606
C 6.6591233652 -0.0260699880 0.3741429925
C 8.0117877153 -0.3373105719 0.3476153938
H 11.3171544985 -3.2641655447 -0.6002603762
H 9.9289941379 -3.3740327736 -1.7036351170
H 9.8015348203 -4.0131794892 -0.0431740587
H 11.7830720834 -1.3779111191 0.2005521924
H 10.6298525409 -0.7635735007 1.4100187898
H 10.7419448359 0.0059668959 -0.1954498132
H 7.7719238492 -3.4428096324 -1.0403204922
H 5.4093503329 -2.8564785897 -1.0040399210
H 3.2958934741 -2.5345436837 0.0911931960
H 0.9483558827 -1.2726945017 0.0884541058
H 1.9846754960 3.5111767825 -0.1150663371
H -3.4336053106 3.9142758199 0.0020262103
H -5.8537577707 2.8650411226 0.0915536066
H -5.0216654026 -1.6716403420 1.0146484689
H -6.9366153135 -3.1674796686 1.0886056380
H -10.7016143766 -1.8605733145 -1.2853349050
H -11.0623490242 -1.2375558924 0.3469588272
H -11.4640768636 -2.9173530639 -0.0748606889
H -10.2572188330 -4.4496365976 0.7078057777
H -8.9672027281 -3.9440995635 1.8230389291
H -8.5589348823 -4.5237696278 0.1860058972
H -9.3890081204 -0.0749325479 -0.7023136498
H -7.4491620803 1.3881033668 -0.7948877255
H 6.3506782697 0.9377763129 0.7917596835
H 8.7216424028 0.3936493373 0.7363037991
58
step=39 E=-2401.207294630749 Eh
C 10.2207408189 -3.1984692920 -0.6508048264
N 9.8028909884 -1.8980530174 -0.1883291544
C 10.7739574132 -0.9686652168 0.3334756940
C 8.4620356719 -1.5791159762 -0.1559562559
C 7.4800471005 -2.4775325318 -0.6283773972
C 6.1329646677 -2.1451630132 -0.6006896784
C 5.6846438396 -0.9176845301 -0.0956303356
C 4.2482122829 -0.5944689835 -0.0590535768
C 3.1785862497 -1.4521387421 0.0185334204
C 1.9209317011 -0.7849414246 0.0267220415
C 2.0431821900 0.5777185823 -0.0423652406
C 0.9508600560 1.5540373047 -0.0479672937
C 1.0724800779 2.9181779515 -0.0848521986
S -0.4786621183 3.6522048108 -0.0797821204
C -1.1985170674 2.0720517924 -0.0252982574
C -2.6446937703 1.8913275533 0.0031091872
C -3.6342113749 2.8429443059 0.0127081552
C -4.9361005836 2.2781786669 0.0520765397
C -4.9250160575 0.9019916120 0.0703578886
C -6.0784761265 -0.0126202389 0.1105564248
C -5.9809048897 -1.3121754541 0.6245964935
C -7.0744890424 -2.1654356957 0.6721567105
C -8.3413938725 -1.7515112764 0.2054324293
N -9.4343932868 -2.5881580500 0.2532769778
C -10.7170902803 -2.1212532412 -0.2124698119
C -9.2919149091 -3.9288166945 0.7658961002
C -8.4395009940 -0.4417888864 -0.3151307658
C -7.3336142728 0.3943349471 -0.3609127855
S -3.3067521044 0.2986918103 0.0290097314
N -0.3437204091 1.0949862990 -0.0138475357
S 3.7027879559 1.0470423608 -0.1318369355
C 6.6584803702 -0.0284691114 0.3759532976
C 8.0109579653 -0.3405141138 0.3494430226
H 11.3145738309 -3.2698586549 -0.5967727845
H 9.9264628933 -3.3795416658 -1.7002356008
H 9.7984271526 -4.0175739067 -0.0393928995
H 11.7816439435 -1.3832944923 0.2025298413
H 10.6288311925 -0.7669905303 1.4113752871
H 10.7414176586 0.0008634380 -0.1948665970
H 7.7691764540 -3.4466009621 -1.0368393677
H 5.4069569166 -2.8588760155 -1.0006830284
H 3.2936475810 -2.5351354951 0.0937664904
H 0.9468759469 -1.2718614777 0.0908146117
H 1.9857561197 3.5115008088 -0.1129721074
H -3.4325214496 3.9169224576 0.0035383332
H -5.8530450450 2.8684595537 0.0925883135
H -5.0223429332 -1.6684707651 1.0154084356
H -6.9376331797 -3.1638484193 1.0889367481
H -10.7020034659 -1.8558761189 -1.2855197733
H -11.0627160728 -1.2330069557 0.3468305466
H -11.4648418338 -2.9126450194 -0.0752677142
H -10.2583430781 -4.4454285399 0.7071378463
H -8.9686743788 -3.9401671618 1.8229161374
H -8.5598775954 -4.5197151362 0.1859738580
H -9.3890335601 -0.0707437031 -0.7024085796
H -7.4488048092 1.3918396497 -0.7945715401
H 6.3506455949 0.9357982755 0.7930483087
H 8.7212713833 0.3902810073 0.7376119110
58
step=40 E=-2401.207295056228 Eh
C 10.2193265730 -3.2015990523 -0.6486390200
N 9.8019031609 -1.9008586463 -0.1866745109
C 10.7733308283 -0.9714712621 0.3344770541
C 8.4611466955 -1.5814947441 -0.1543175141
C 7.4787989958 -2.4797455868 -0.6263293327
C 6.1318302638 -2.1469224146 -0.5986675293
C 5.6839710790 -0.9191011273 -0.0940212274
C 4.2476585471 -0.5953702985 -0.0574733517
C 3.1777535104 -1.4526820408 0.0202472704
C 1.9203394821 -0.7850327880 0.0283526317
C 2.0430397799 0.5775776690 -0.0409529125
C 0.9510403121 1.5542580692 -0.0467152417
C 1.0731361313 2.9183550806 -0.0836283595
S -0.4777807217 3.6528805814 -0.0787726931
C -1.1981611775 2.0729751881 -0.0242984405
C -2.6443980517 1.8926951004 0.0039393375
C -3.6336196384 2.8446090199 0.0135588926
C -4.9356824098 2.2801996475 0.0527615262
C -4.9249991432 0.9040101691 0.0709034289
C -6.0786926280 -0.0103045151 0.1109320417
C -5.9814695898 -1.3098829010 0.6249830409
C -7.0752630301 -2.1628912274 0.6723621299
C -8.3420085125 -1.7486824458 0.2054628644
N -9.4351963447 -2.5850919475 0.2531159492
C -10.7177513169 -2.1178357839 -0.2126680989
C -9.2930987120 -3.9258120211 0.7656932443
C -8.4397574379 -0.4389255746 -0.3150804998
C -7.3336721463 0.3969443683 -0.3606966416
S -3.3069112549 0.3002428122 0.0296065683
N -0.3436924776 1.0956291179 -0.0127286307
S 3.7027970067 1.0463194670 -0.1305033744
C 6.6581516872 -0.0300430387 0.3771579505
C 8.0105195819 -0.3425546878 0.3506441106
H 11.3131324602 -3.2733574342 -0.5945038698
H 9.9250475803 -3.3830030022 -1.6980174453
H 9.7966848184 -4.0202991943 -0.0369155099
H 11.7808594833 -1.3865669370 0.2037843598
H 10.6283050542 -0.7690312847 1.4122432661
H 10.7411457215 -0.0022701302 -0.1945057993
H 7.7675649584 -3.4490533665 -1.0344855406
H 5.4055580672 -2.8605404107 -0.9983715563
H 3.2924452781 -2.5357126396 0.0956271657
H 0.9461078923 -1.2715973930 0.0925211354
H 1.9866096955 3.5113841379 -0.1116632004
H -3.4316104726 3.9185306467 0.0045247437
H -5.8524633502 2.8707437024 0.0932513341
H -5.0230406537 -1.6664049510 1.0159203791
H -6.9386771199 -3.1613409331 1.0891511364
H -10.7025427464 -1.8523632275 -1.2856900719
H -11.0631865886 -1.2295565472 0.3467009425
H -11.4657147131 -2.9090579722 -0.0755874880
H -10.2596123516 -4.4422430792 0.7066301423
H -8.9701374908 -3.9372960078 1.8227958133
H -8.5610183706 -4.5168089291 0.1859241624
H -9.3891571440 -0.0676682340 -0.7024926215
H -7.4485670238 1.3944789448 -0.7943732682
H 6.3506888824 0.9344934030 0.7939094877
H 8.7211087129 0.3881687116 0.7384586813
