54
0 1 Before single point calculation
C -9.414124631 -1.746303190 -0.556809071
N -8.016066597 -1.894731307 -0.165794444
C -7.420925427 -3.047420690 0.320088036
C -6.102321491 -2.802609816 0.573776147
C -5.842673029 -1.445590575 0.237828565
C -4.682247545 -0.661261889 0.296604376
C -4.734063285 0.664457855 -0.102081061
C -3.564088321 1.529437636 -0.055595592
C -2.301715418 1.114950452 0.131494807
C -1.132832545 1.984073262 0.188507563
C -1.239548901 3.370376062 0.314449029
C -0.112105752 4.160874943 0.364585377
C 1.140330697 3.591686811 0.293262531
C 1.292039248 2.209109053 0.176189077
C 2.630737845 1.637667728 0.100863649
C 2.922915604 0.331740351 0.197228970
C 4.260246060 -0.237609652 0.117522541
C 4.442947589 -1.610597241 0.436582610
C 5.668481627 -2.212606618 0.384790905
C 6.777193313 -1.447160329 0.000417050
C 6.622267916 -0.086251226 -0.325807126
C 7.907267371 0.412372994 -0.675144719
C 8.796654660 -0.616492376 -0.559016151
N 8.126639711 -1.757605238 -0.149129677
C 8.725295352 -3.065031905 0.099070700
C 5.357789055 0.515920699 -0.266022541
C 0.141816720 1.424676091 0.125143169
C -5.968608581 1.201272505 -0.557991118
C -7.108114786 0.450243546 -0.623413069
C -7.052292529 -0.891024225 -0.222544335
H -9.949214470 -2.682983810 -0.411995727
H -9.889177775 -0.974541110 0.046217260
H -9.478767888 -1.464539399 -1.606263829
H -7.936821934 -3.981258166 0.468407020
H -5.381088828 -3.503093524 0.959244657
H -3.773552618 -1.096811991 0.666221210
H -3.743755061 2.577905210 -0.208605629
H -2.114409473 0.060943440 0.226235217
H -2.210593771 3.826824310 0.387449626
H -0.210281583 5.229848478 0.462353780
H 2.018344024 4.213613711 0.333271687
H 3.436563586 2.337962818 -0.020825343
H 2.121614921 -0.363533786 0.368193874
H 3.581848159 -2.185537519 0.731276397
H 5.796235480 -3.251773763 0.630591328
H 8.128591747 1.422644319 -0.975359231
H 9.855494567 -0.569646934 -0.751001707
H 8.588037187 -3.344620852 1.141901334
H 8.254868451 -3.815849662 -0.532940544
H 9.791111716 -3.041075566 -0.119892090
H 5.258980133 1.551143305 -0.531411983
H 0.228660878 0.359726958 0.015056108
H -5.995289594 2.233291986 -0.863012984
H -8.036938942 0.865417765 -0.971849807
