66
0 1 Before single point calculation
C 7.668642149 0.635571277 -0.702104873
N 6.936639479 -0.207984106 0.251721567
C 7.797027334 -1.133065320 0.987604620
C 5.549095588 -0.419733878 0.164746954
C 5.034113025 -1.705015724 0.313062279
C 3.698699026 -1.981034435 0.118641607
C 2.785384669 -0.992190805 -0.227526649
C 1.399082121 -1.313366421 -0.438948406
C 0.811528997 -2.521631785 -0.323206410
C -0.602710038 -2.657323729 -0.526138321
C -1.248341135 -3.867407267 -0.315183250
C -2.602654627 -3.897644385 -0.417752951
C -3.264884143 -2.716059151 -0.723458225
C -4.707577072 -2.659319670 -0.723581489
C -5.423783294 -1.511052521 -0.622054706
C -4.868560945 -0.188988664 -0.333722918
C -5.218739842 0.891940062 -1.137188919
C -4.601555510 2.118689644 -1.013105542
C -3.589483958 2.341892879 -0.079947311
N -2.842117337 3.531939035 -0.118678881
C -1.378431701 3.537889009 0.010371540
C -3.376321998 4.741816923 -0.740617830
C -3.303748219 1.299861899 0.870576238
C -2.444923052 1.510684369 1.965416764
C -2.191334075 0.520962374 2.871780402
C -2.806486131 -0.721599994 2.740706374
C -3.672052834 -0.950347201 1.711338391
C -3.944160662 0.041172679 0.746242927
N -2.572073328 -1.603004591 -1.013087311
N -1.287843483 -1.565563286 -0.897846066
C 3.254443176 0.363573182 -0.338346733
C 2.386915858 1.440905791 -0.627626371
C 2.837263996 2.729019142 -0.656592056
C 4.172935121 3.010503098 -0.383880652
C 5.043791951 1.994932089 -0.112181199
C 4.627903445 0.650239866 -0.114871359
H 8.125032361 1.480739703 -0.189759836
H 7.002627157 1.001784317 -1.481427179
H 8.456463038 0.057902232 -1.182836924
H 8.733966467 -0.646614937 1.253177065
H 7.307804775 -1.451337548 1.906417151
H 8.018366849 -2.008310067 0.379532005
H 5.709505155 -2.510941010 0.539576101
H 3.359090289 -2.995741966 0.224619334
H 0.740300082 -0.508377695 -0.703406020
H 1.378449112 -3.390870414 -0.048389612
H -0.685670406 -4.743707389 -0.042168800
H -3.159960728 -4.798111039 -0.224036165
H -5.232451528 -3.593005242 -0.838566365
H -6.488633733 -1.561150010 -0.793103762
H -5.943502116 0.736626768 -1.918127723
H -4.851590652 2.903730346 -1.704380606
H -1.076015598 4.102959346 0.890002346
H -0.996068886 2.521406957 0.084995484
H -0.927606153 3.998259748 -0.867201180
H -4.428984076 4.860201207 -0.489781126
H -2.840818335 5.618563924 -0.380576846
H -3.270955740 4.688263125 -1.822717578
H -2.013627067 2.484154522 2.110872797
H -1.524243269 0.703083793 3.698589766
H -2.604699268 -1.498578016 3.460065476
H -4.160273133 -1.904923097 1.627267386
H 1.347119146 1.256379655 -0.822947685
H 2.155896407 3.534301614 -0.876513027
H 4.515296035 4.032493543 -0.380603908
H 6.059304041 2.227068485 0.151153123
