74
0 1 Before single point calculation
C -11.915387472 2.103196372 -1.384642586
C -11.616643294 1.715382127 0.045564561
N -10.539017822 0.721720230 0.124134853
C -10.707935498 -0.669194808 0.065467686
C -11.857909416 -1.460548778 0.012204002
C -11.716772414 -2.824391816 -0.043297963
C -10.451042999 -3.421210484 -0.048968586
C -9.309602927 -2.659593197 -0.001145050
C -9.435180169 -1.269889602 0.056332502
C -8.461197279 -0.206701884 0.095088352
C -7.068841933 -0.211430006 0.084899590
C -6.376152489 0.990632344 0.106780511
C -4.919500085 0.980634723 0.094913494
C -4.087765213 2.065489867 0.109032585
C -2.710499030 1.736043650 0.094114636
C -2.460927421 0.396663159 0.067564836
C -1.129214996 -0.196829419 0.050677485
C -0.903378873 -1.541654511 -0.001232390
S 0.779676453 -1.863017419 -0.003976143
C 1.097130812 -0.134593546 0.069338512
C 2.414227952 0.435705097 0.104844996
C 2.676414615 1.775917051 0.173133644
C 4.053311385 2.092278247 0.199411889
C 4.878257030 1.001243508 0.151354956
C 6.333788073 1.003500486 0.162460785
C 7.070917106 2.209078269 0.258582299
C 8.440083705 2.222441233 0.268822315
C 9.128126215 1.008477091 0.182657229
C 8.413807936 -0.200233432 0.083266643
C 7.021557560 -0.198790823 0.074674311
C 9.382601379 -1.264353956 -0.015134801
C 9.249942710 -2.648108840 -0.148551996
C 10.387571569 -3.411600192 -0.238613836
C 11.656256289 -2.822231860 -0.200924726
C 11.804253677 -1.464208845 -0.070375066
C 10.658242370 -0.671363786 0.026652462
N 10.495978167 0.714889746 0.162739090
C 11.580363091 1.704358149 0.153728085
C 11.913457641 2.156212578 -1.249956939
S 3.913392890 -0.453673770 0.070462254
N 0.006140461 0.584518713 0.089684202
S -3.964533643 -0.482225505 0.059010822
C -7.107175608 2.202774274 0.137777715
C -8.476372487 2.222722582 0.147619947
C -9.169690236 1.008982700 0.128115624
H -12.214036773 1.231774950 -1.969227346
H -11.031123519 2.522662558 -1.866620206
H -12.715939992 2.842648242 -1.453516808
H -12.502224416 1.301214143 0.537758306
H -11.322625787 2.586524849 0.639775559
H -12.828649344 -0.998064133 0.014020582
H -12.594835071 -3.447877367 -0.083652710
H -10.372408473 -4.495013136 -0.093428335
H -8.332743964 -3.109919130 -0.009373739
H -6.535018293 -1.142497593 0.057034957
H -4.440831033 3.084166948 0.130448940
H -1.919321881 2.469844054 0.103357092
H -1.668622982 -2.291082175 -0.035269651
H 1.891543732 2.515713857 0.204558833
H 4.414356932 3.106942124 0.251276644
H 6.537120213 3.139955898 0.326406413
H 8.989017956 3.144361351 0.340029436
H 6.483686020 -1.124689938 -0.003290472
H 8.270809232 -3.092411876 -0.180786176
H 10.303440258 -4.480921944 -0.341932551
H 12.531142599 -3.446916994 -0.276255114
H 12.777222195 -1.007157335 -0.043859799
H 12.452524223 1.262031246 0.645895288
H 11.277879363 2.549030680 0.781145148
H 11.041022983 2.599001626 -1.733018323
H 12.225439122 1.311823541 -1.866536306
H 12.716117633 2.896579276 -1.265968751
H -6.568922543 3.133438431 0.153544546
H -9.021361790 3.149473836 0.168925924
