51
0 1 Before single point calculation
C 3.903547173 1.415369227 1.823842598
C 4.872026968 0.541976908 1.478180684
C 4.862747735 -0.419980753 0.382313106
C 5.991360795 -0.770377979 -0.371209139
C 5.590856932 -1.688230895 -1.306542498
O 4.264773389 -1.957084278 -1.184689036
C 3.804560862 -1.201796597 -0.134663521
C 2.441101494 -1.226710408 0.320451519
C 1.461297319 -1.762067844 -0.422269650
C 0.042341714 -1.669453026 -0.132563146
C -0.887518081 -2.041341882 -1.106975394
C -2.235286160 -1.878038957 -0.896135071
C -2.701310888 -1.339564219 0.295171671
N -4.115624613 -1.124112099 0.501158053
C -5.021847702 -1.979632735 1.087206620
C -6.226836922 -1.329772249 1.072969327
N -6.098889279 -0.110818799 0.504127583
C -4.843210223 0.009452359 0.165568939
C -1.788339197 -0.986833874 1.278855944
C -0.440352252 -1.151188516 1.071885438
C 2.653471639 1.669549669 1.112107309
C 2.574664518 1.652413468 -0.282441207
C 1.365538452 1.790305868 -0.921581237
C 0.194911291 1.966028920 -0.194542651
N -1.084611265 1.981468319 -0.854888545
C -1.419424444 1.352297238 -2.034435320
C -2.754586869 1.580987418 -2.233074728
N -3.261189003 2.320211054 -1.223460380
C -2.266849785 2.558676804 -0.407416796
C 0.274280464 2.050242240 1.189486107
C 1.480300268 1.908782631 1.832253433
H 4.049612712 1.995912271 2.720977847
H 5.775075477 0.545198990 2.068042577
H 6.983977346 -0.373626284 -0.243601292
H 6.229778096 -2.150078908 -2.049078992
H 2.209440869 -0.722490534 1.238026586
H 1.743987293 -2.220655988 -1.353481682
H -0.533831399 -2.438594834 -2.042818777
H -2.947769738 -2.149128880 -1.655478789
H -4.800601045 -2.960937902 1.474351682
H -7.162038501 -1.713819818 1.457087171
H -4.432775102 0.884962027 -0.314220606
H -2.156173215 -0.568410069 2.199296896
H 0.251238053 -0.862617896 1.842639013
H 3.472405994 1.493728964 -0.854067838
H 1.311206969 1.743237743 -1.994785233
H -0.754509428 0.769947628 -2.651198638
H -3.346223156 1.219198125 -3.062918882
H -2.363168702 3.135904465 0.500373018
H -0.629368719 2.186700262 1.756685238
H 1.526096012 1.941733700 2.907202678
