58
0 1 Before single point calculation
C -11.139823830 1.198674627 -0.041155083
N -10.517463678 -0.098787774 -0.134457492
C -11.345836235 -1.270753458 0.000433878
C -9.151558714 -0.209626625 -0.081962721
C -8.322767287 0.922333752 -0.130589923
C -6.953265592 0.804594742 -0.101465900
C -6.322049113 -0.439235717 -0.020065299
C -4.884101024 -0.546707112 0.013227652
C -4.099660113 -1.673069060 0.058925530
C -2.724444879 -1.406631623 0.079801881
C -2.432391772 -0.068647889 0.051593408
C -1.131839242 0.537216362 0.056871451
C -0.868504219 1.885037746 0.044206321
S 0.819782630 2.181639505 0.048368258
C 1.069556041 0.430780314 0.067861633
C 2.368496678 -0.144955975 0.071238110
C 2.674596315 -1.486172018 0.085523542
C 4.048328850 -1.735846074 0.074167567
C 4.822330812 -0.596866990 0.050473904
C 6.257742467 -0.477627618 0.023726899
C 7.090891152 -1.601613110 0.021198501
C 8.459848315 -1.480667284 -0.013796809
C 9.083262709 -0.222440658 -0.049705071
N 10.445062746 -0.102534208 -0.087211631
C 11.073832115 1.189332185 0.026694572
C 11.280127130 -1.260672316 -0.284836020
C 8.245914725 0.905203986 -0.042968620
C 6.878483157 0.774890358 -0.006874790
S 3.810669552 0.820663077 0.045384976
N -0.025838169 -0.252055086 0.071113253
S -3.883506007 0.882588220 -0.002622031
C -7.146085608 -1.567439874 0.030634641
C -8.517201719 -1.458954549 0.002165610
H -10.848038951 1.723837625 0.875281146
H -12.221146461 1.083642187 -0.037594123
H -10.870012975 1.820173321 -0.899611187
H -12.391039146 -0.989976282 -0.105956129
H -11.217071543 -1.755104760 0.975571064
H -11.112537727 -1.996098491 -0.782730041
H -8.748762168 1.909909543 -0.194570691
H -6.346580263 1.698328943 -0.141567165
H -4.498823844 -2.671219365 0.074446353
H -1.956487010 -2.157675343 0.114291667
H -1.571116720 2.693122988 0.032513611
H 1.912632451 -2.243486173 0.102073901
H 4.459420284 -2.729013339 0.081701235
H 6.659096182 -2.589963369 0.050626391
H 9.052953675 -2.380352467 -0.001145579
H 10.930083988 1.792800037 -0.876907547
H 12.141909368 1.059247422 0.185226798
H 10.671892487 1.739033524 0.880786763
H 10.923482999 -1.856609212 -1.128937306
H 12.296362402 -0.941598999 -0.505574356
H 11.305674166 -1.897550858 0.606829978
H 8.665423177 1.897059569 -0.079274036
H 6.263496126 1.663758033 -0.007697681
H -6.706549112 -2.550627181 0.099476331
H -9.099090950 -2.364777819 0.050706783
58
step=1 E=-2401.195163101755 Eh
C -11.1398235365 1.1986745595 -0.0411550801
N -10.5174637645 -0.0987877701 -0.1344574892
C -11.3458356855 -1.2707534117 0.0004338777
C -9.1515588556 -0.2096266093 -0.0819627183
C -8.3227672442 0.9223337114 -0.1305899182
C -6.9532656342 0.8045947083 -0.1014658990
C -6.3220490021 -0.4392357121 -0.0200652991
C -4.8841009340 -0.5467071003 0.0132276522
C -4.0996597810 -1.6730690119 0.0589255282
C -2.7244449410 -1.4066315512 0.0798018814
C -2.4323916626 -0.0686478894 0.0515934075
C -1.1318392820 0.5372163706 0.0568714475
C -0.8685042127 1.8850376802 0.0442063212
S 0.8197826182 2.1816393902 0.0483682576
C 1.0695560080 0.4307803017 0.0678616326
C 2.3684965889 -0.1449559788 0.0712381113
C 2.6745962520 -1.4861719608 0.0855235412
C 4.0483287131 -1.7358460188 0.0741675623
C 4.8223304539 -0.5968669615 0.0504739014
C 6.2577424825 -0.4776275981 0.0237268985
C 7.0908910957 -1.6016129907 0.0211985004
C 8.4598480130 -1.4806671896 -0.0137968088
C 9.0832628267 -0.2224406619 -0.0497050704
N 10.4450625535 -0.1025342019 -0.0872116323
C 11.0738311854 1.1893320788 0.0266945720
C 11.2801268940 -1.2606723107 -0.2848360209
C 8.2459146632 0.9052039699 -0.0429686180
C 6.8784828717 0.7748903881 -0.0068747899
S 3.8106693327 0.8206630579 0.0453849787
N -0.0258381674 -0.2520550908 0.0711132519
S -3.8835057232 0.8825882218 -0.0026220307
C -7.1460854112 -1.5674398218 0.0306346403
C -8.5172010964 -1.4589545988 0.0021656101
H -10.8480388261 1.7238376226 0.8752811418
H -12.2211462549 1.0836421391 -0.0375941196
H -10.8700121160 1.8201732491 -0.8996111595
H -12.3910387837 -0.9899763017 -0.1059561316
H -11.2170718362 -1.7551047990 0.9755710608
H -11.1125376037 -1.9960983928 -0.7827300585
H -8.7487620217 1.9099095224 -0.1945706921
H -6.3465802553 1.6983289104 -0.1415671597
H -4.4988237605 -2.6712193817 0.0744463487
H -1.9564869332 -2.1576751715 0.1142916676
H -1.5711167303 2.6931227514 0.0325136109
H 1.9126324408 -2.2434862094 0.1020739024
H 4.4594200030 -2.7290131427 0.0817012307
H 6.6590962026 -2.5899631838 0.0506263891
H 9.0529536146 -2.3803524127 -0.0011455787
H 10.9300844030 1.7927999491 -0.8769075415
H 12.1419100375 1.0592473184 0.1852267984
H 10.6718925446 1.7390334225 0.8807867597
H 10.9234833036 -1.8566092009 -1.1289372530
H 12.2963622178 -0.9415990322 -0.5055743727
H 11.3056733154 -1.8975508691 0.6068299184
H 8.6654233950 1.8970595016 -0.0792740377
H 6.2634961205 1.6637580595 -0.0076976816
H -6.7065492112 -2.5506272032 0.0994763302
H -9.0990906918 -2.3647779125 0.0507067817
58
step=2 E=-2401.202666155221 Eh
C -11.2499043328 1.1122607845 -0.0426793702
N -10.5996271947 -0.1746849624 -0.1352244361
C -11.3730597083 -1.3872226443 -0.0021518775
C -9.2263574271 -0.2394257649 -0.0830631508
C -8.4320269477 0.9236018772 -0.1294990515
C -7.0508777641 0.8456658120 -0.0995850842
C -6.3665598991 -0.3755011539 -0.0198762738
C -4.9097230564 -0.4722443048 0.0150296124
C -4.1196676637 -1.5962290522 0.0588114693
C -2.7327231458 -1.3201434470 0.0811563622
C -2.4503237202 0.0203371696 0.0558091141
C -1.1372260375 0.6400673102 0.0624360643
C -0.8721336684 1.9872970411 0.0528943160
S 0.8198775004 2.2667516643 0.0572412765
C 1.0764291339 0.5257713458 0.0723439907
C 2.3914545824 -0.0666118635 0.0736724878
C 2.6813485196 -1.4098901363 0.0848038842
C 4.0658392311 -1.6751403742 0.0718975494
C 4.8502971129 -0.5423692852 0.0502367604
C 6.3052903742 -0.4393506969 0.0226957105
C 7.1116199760 -1.5859856227 0.0179545457
C 8.4920747054 -1.5084281957 -0.0170773886
C 9.1526547512 -0.2622687973 -0.0509689215
N 10.5218481091 -0.1785319648 -0.0883707682
C 11.1662263118 1.1089408422 0.0280102687
C 11.3286470639 -1.3604828572 -0.2860961938
C 8.3439918766 0.8931416108 -0.0424354209
C 6.9648853589 0.7978733993 -0.0060943424
S 3.8459199162 0.8759442607 0.0490185771
N -0.0248835472 -0.1558321206 0.0745805063
S -3.9098949566 0.9535969968 0.0035457386
C -7.1647540948 -1.5265420586 0.0287548748
C -8.5474170585 -1.4717859478 0.0002659712
H -10.9696865492 1.6509664387 0.8763660386
H -12.3337239866 0.9722559725 -0.0375996664
H -10.9973367479 1.7469213734 -0.9040548477
H -12.4354646074 -1.1530554148 -0.1067971189
H -11.2225364486 -1.8738310997 0.9753090540
H -11.1108051081 -2.1070590839 -0.7894129641
H -8.8930518365 1.9041944361 -0.1925819140
H -6.4762903582 1.7694692022 -0.1388948636
H -4.5204058523 -2.6041845936 0.0717448391
H -1.9513142440 -2.0711407184 0.1144556571
H -1.5784092122 2.8071874769 0.0432080329
H 1.9025606765 -2.1640882092 0.1002462968
H 4.4741312466 -2.6798914847 0.0768983858
H 6.6487305341 -2.5693678544 0.0460070090
H 9.0630739436 -2.4316601770 -0.0059946334
H 11.0337236395 1.7235089150 -0.8769236127
H 12.2377824321 0.9651553187 0.1891931720
H 10.7705374029 1.6687641471 0.8859628778
H 10.9593584606 -1.9528297050 -1.1346336930
H 12.3576123778 -1.0651323233 -0.5075319115
H 11.3418307354 -2.0062062052 0.6064122960
H 8.7945478505 1.8801266382 -0.0774179843
H 6.3752944164 1.7130454702 -0.0055747082
H -6.6907147623 -2.5027431259 0.0968357414
H -9.1010326036 -2.4043331613 0.0478009099
58
step=3 E=-2401.202484932509 Eh
C -11.2025257144 1.2539484195 -0.1309506834
N -10.6031710875 -0.0583635333 -0.2011692395
C -11.4814548605 -1.1977643905 -0.0770263175
C -9.2320705414 -0.2103632768 -0.1164072722
C -8.3637372986 0.9054005712 -0.1328582038
C -6.9836208763 0.7541968690 -0.0643273792
C -6.4025868426 -0.5184707811 0.0274604113
C -4.9310452774 -0.6231815612 0.0843707080
C -4.1349180434 -1.7433193840 0.1315627504
C -2.7395268847 -1.4471961003 0.1635928214
C -2.4828659929 -0.1021783836 0.1419506972
C -1.1603774838 0.5383064575 0.1494130422
C -0.8983057191 1.8843749354 0.1466903560
S 0.7928284082 2.1625201423 0.1404728033
C 1.0484724242 0.4414255882 0.1414865999
C 2.3939059785 -0.1354094915 0.1236805502
C 2.6884782254 -1.4744920412 0.1241861110
C 4.0885638974 -1.7260183839 0.0912116543
C 4.8512523438 -0.5791840415 0.0653282242
C 6.3212842773 -0.4426704791 0.0204163930
C 7.1640978309 -1.5649191794 0.0031682363
C 8.5477700065 -1.4475051356 -0.0440361296
C 9.1737637325 -0.1792394242 -0.0783307110
N 10.5468265244 -0.0731754152 -0.1268889245
C 11.2204826386 1.2028761434 -0.0356356814
C 11.3357220474 -1.2692182045 -0.3127265427
C 8.3308557916 0.9560987175 -0.0625734495
C 6.9492036782 0.8116420427 -0.0127789689
S 3.8321471328 0.8179732274 0.0837678378
N -0.0431902451 -0.2619816613 0.1499887721
S -3.9498212550 0.8048171252 0.0883160109
C -7.2497508048 -1.6380321977 0.0579631170
C -8.6297510400 -1.4865298768 -0.0098314858
H -10.9323038612 1.7945960704 0.7976834474
H -12.2974184205 1.1523186099 -0.1573423150
H -10.9067336510 1.8879085449 -0.9872466427
H -12.5221129577 -0.8673063874 -0.2108664627
H -11.4043700326 -1.6953679539 0.9108878046
H -11.2734457906 -1.9562573902 -0.8531164853
H -8.7674890021 1.9185198207 -0.2068925796
H -6.3501864842 1.6513196368 -0.0873608619
H -4.5328114054 -2.7630778994 0.1356802813
H -1.9362351304 -2.1894903094 0.1973595190
H -1.6138160298 2.7114054492 0.1463294454
H 1.9060477644 -2.2395148599 0.1454461181
H 4.5186807966 -2.7324249162 0.0843349566
H 6.7309293542 -2.5714132575 0.0325195959
H 9.1511068358 -2.3599899874 -0.0428291445
H 11.0901494814 1.8269201020 -0.9426733070
H 12.2981751892 1.0350357991 0.1070699950
H 10.8603033386 1.7878060768 0.8295404993
H 10.9617979375 -1.8733609115 -1.1594732719
H 12.3735946412 -0.9864897212 -0.5413091927
H 11.3500544968 -1.9195513163 0.5845255006
H 8.7516901296 1.9643355212 -0.1015279420
H 6.3364621897 1.7225393473 -0.0060824260
H -6.8331637344 -2.6490380807 0.1384864672
H -9.2484180343 -2.3871716982 0.0217690479
58
step=4 E=-2401.204300455377 Eh
C -11.2421039273 1.1798283483 -0.1280325199
N -10.6135939689 -0.1187215938 -0.1970412642
C -11.4339758652 -1.3001306021 -0.0707859883
C -9.2394568430 -0.2213502850 -0.1151561813
C -8.4131683878 0.9237162532 -0.1339908311
C -7.0297960623 0.8144590240 -0.0678359505
C -6.3927223171 -0.4312208821 0.0236935521
C -4.9205883557 -0.5308396114 0.0802790709
C -4.1349340454 -1.6573503138 0.1260808279
C -2.7385605706 -1.3721186174 0.1585754094
C -2.4718504669 -0.0291067695 0.1386754225
C -1.1456509449 0.6002659084 0.1472003614
C -0.8772980737 1.9443780727 0.1463186590
S 0.8157754355 2.2108104700 0.1407926733
C 1.0611707133 0.4891165884 0.1396099826
C 2.3992435560 -0.1018974407 0.1215419419
C 2.6814177282 -1.4436600341 0.1205521730
C 4.0777074373 -1.7095933601 0.0877495082
C 4.8496495023 -0.5700011012 0.0635023414
C 6.3197285015 -0.4509670914 0.0193721688
C 7.1435102236 -1.5859462869 0.0016060721
C 8.5276538313 -1.4899214356 -0.0447688321
C 9.1751007846 -0.2330004830 -0.0777337998
N 10.5476253758 -0.1259852601 -0.1254881146
C 11.1833419702 1.1674717076 -0.0292419109
C 11.3567969400 -1.3080680549 -0.3113707112
C 8.3465694521 0.9112233597 -0.0611757141
C 6.9637291101 0.7937714873 -0.0122843135
S 3.8459586924 0.8380001780 0.0831719158
N -0.0344733146 -0.2072728667 0.1468714178
S -3.9306543324 0.8908666435 0.0857671703
C -7.2096346208 -1.5706662426 0.0555776006
C -8.5936747805 -1.4740229208 -0.0091871756
H -10.9811676028 1.7289220024 0.7978605473
H -12.3337175599 1.0545295007 -0.1504651602
H -10.9635760970 1.8182079991 -0.9863306746
H -12.4895789991 -1.0225375854 -0.2001643356
H -11.3284883692 -1.7940847021 0.9158981664
H -11.1920115396 -2.0469959280 -0.8477888731
H -8.8511693601 1.9218897497 -0.2076998680
H -6.4323679298 1.7340022081 -0.0928004660
H -4.5412230674 -2.6727443374 0.1288970958
H -1.9416787254 -2.1196598219 0.1914824884
H -1.5873078836 2.7743776315 0.1469673828
H 1.8923522828 -2.2001816900 0.1406615710
H 4.4979721420 -2.7189820498 0.0798254057
H 6.6949378893 -2.5848126852 0.0298666554
H 9.1146069231 -2.4114888704 -0.0439265003
H 11.0375661263 1.7892918576 -0.9348333229
H 12.2643254933 1.0307232819 0.1162788102
H 10.8039606733 1.7396596061 0.8358300120
H 10.9960296305 -1.9168491581 -1.1597415569
H 12.3900838383 -1.0083323737 -0.5365021670
H 11.3795033451 -1.9593451535 0.5843826896
H 8.7834959845 1.9119378738 -0.0989141329
H 6.3670249708 1.7142983564 -0.0051176491
H -6.7599643940 -2.5662936428 0.1358163180
H -9.1786280274 -2.3961431652 0.0242037500
58
step=5 E=-2401.204035043397 Eh
C -11.2573596912 1.1386370642 -0.1190847290
N -10.6200572569 -0.1547124706 -0.1786137991
C -11.3997218905 -1.3612719201 -0.0460195443
C -9.2451717073 -0.2293841187 -0.1062676508
C -8.4424244226 0.9299814678 -0.1337560582
C -7.0592711144 0.8400619816 -0.0768522574
C -6.3875060229 -0.3854933988 0.0137579289
C -4.9194209081 -0.4944391036 0.0635044950
C -4.1325070072 -1.6197164278 0.1000616076
C -2.7381355749 -1.3414317798 0.1316019025
C -2.4649724847 0.0003072623 0.1206946490
C -1.1457479321 0.6341855384 0.1337244762
C -0.8929196314 1.9810387127 0.1441511050
S 0.7992643618 2.2594496347 0.1402698160
C 1.0643806652 0.5393143734 0.1259721811
C 2.3953383585 -0.0569283391 0.1071656074
C 2.6822259027 -1.3983328796 0.0994649763
C 4.0760757746 -1.6603697903 0.0684761639
C 4.8489209562 -0.5222650827 0.0517527858
C 6.3150206906 -0.4042077547 0.0132612061
C 7.1218837964 -1.5497532479 -0.0019425081
C 8.5048726042 -1.4715331844 -0.0416684855
C 9.1537330311 -0.2182588418 -0.0696493282
N 10.5278642934 -0.1645773678 -0.1091623915
C 11.2206845234 1.0971479391 -0.0171170847
C 11.2850621501 -1.3806327526 -0.2797438445
C 8.3485906035 0.9410436122 -0.0563668836
C 6.9668063236 0.8357980431 -0.0142394281
S 3.8426618354 0.8851727572 0.0764131713
N -0.0279052083 -0.1620337307 0.1253983192
S -3.9233723968 0.9237250117 0.0701064732
C -7.1934996468 -1.5299892061 0.0509069653
C -8.5780995427 -1.4687841019 -0.0040387570
H -10.9978704238 1.6954070878 0.8004461476
H -12.3462579288 1.0089173212 -0.1390276281
H -10.9825715410 1.7695894517 -0.9816644340
H -12.4632601258 -1.1224618882 -0.1686556551
H -11.2696961572 -1.8478006527 0.9393104545
H -11.1365843914 -2.0994331207 -0.8218599942
H -8.8975431303 1.9176542098 -0.2064685770
H -6.4826386326 1.7687451854 -0.1071336554
H -4.5394977192 -2.6311100508 0.0980481564
H -1.9468892107 -2.0901636416 0.1588296955
H -1.6086393512 2.8008703029 0.1527258034
H 1.8978260060 -2.1548006209 0.1139737772
H 4.4957815346 -2.6662225465 0.0561851058
H 6.6611869944 -2.5399396041 0.0226960400
H 9.0836445489 -2.3956191938 -0.0399412524
H 11.0986349627 1.7191526378 -0.9235682786
H 12.2931290534 0.9139627457 0.1253729543
H 10.8694842318 1.6868310892 0.8456722945
H 10.9085900082 -1.9745231906 -1.1295458690
H 12.3328388137 -1.1320726332 -0.4902090999
H 11.2624150441 -2.0252094275 0.6184558732
H 8.7979303891 1.9333502915 -0.0907820537
H 6.3793769711 1.7585496361 -0.0090201381
H -6.7269799661 -2.5143551865 0.1304303536
H -9.1429446251 -2.4002863118 0.0338805893
58
step=6 E=-2401.204520713843 Eh
C -11.2523267693 1.1596653813 -0.1208892390
N -10.6188762975 -0.1353676673 -0.1793599886
C -11.4113204644 -1.3332246740 -0.0460063640
C -9.2438894593 -0.2193072795 -0.1064370013
C -8.4326012477 0.9344743780 -0.1344312032
C -7.0498831114 0.8364344453 -0.0770061275
C -6.3888622370 -0.3947424978 0.0147184552
C -4.9210147889 -0.5054441250 0.0645723481
C -4.1366971890 -1.6326843531 0.1019160829
C -2.7418589339 -1.3558009896 0.1332245469
C -2.4666591459 -0.0144099068 0.1213491966
C -1.1456945824 0.6165789504 0.1338940771
C -0.8879309248 1.9627020127 0.1435253568
S 0.8048758703 2.2372224723 0.1393678396
C 1.0639545744 0.5167337460 0.1259970452
C 2.3949491190 -0.0801888088 0.1073707169
C 2.6805834204 -1.4217547678 0.1003921291
C 4.0744916535 -1.6848006538 0.0693539766
C 4.8483035373 -0.5470958023 0.0518909982
C 6.3148703764 -0.4288492840 0.0131392085
C 7.1279924604 -1.5700580359 -0.0016440635
C 8.5110239665 -1.4849243174 -0.0416386594
C 9.1601997342 -0.2308169839 -0.0705239701
N 10.5336772276 -0.1485756213 -0.1104152800
C 11.1863477669 1.1343666512 -0.0175460051
C 11.3247222608 -1.3431255348 -0.2807289043
C 8.3453308112 0.9213799869 -0.0574667733
C 6.9634446506 0.8125022103 -0.0150980068
S 3.8428594466 0.8608979571 0.0759209889
N -0.0300717639 -0.1827427820 0.1259299616
S -3.9232811034 0.9114909350 0.0701702344
C -7.2006246209 -1.5356384376 0.0525920169
C -8.5847560483 -1.4633118490 -0.0030093401
H -10.9920776168 1.7161186509 0.7987045654
H -12.3417769993 1.0330494362 -0.1417643574
H -10.9749622019 1.7895468603 -0.9835116748
H -12.4723251695 -1.0831674889 -0.1699601510
H -11.2874423938 -1.8199436910 0.9400945887
H -11.1554011439 -2.0751892025 -0.8207181269
H -8.8810462079 1.9251517943 -0.2080362107
H -6.4664253573 1.7611881953 -0.1077357277
H -4.5454835653 -2.6435482292 0.1006067131
H -1.9514681205 -2.1056596472 0.1609678891
H -1.6012919733 2.7848049779 0.1517107362
H 1.8954385788 -2.1776795266 0.1154236208
H 4.4934606800 -2.6911183940 0.0575528820
H 6.6723087494 -2.5626715459 0.0235541917
H 9.0916550909 -2.4075446464 -0.0394132333
H 11.0452348174 1.7526798294 -0.9238990535
H 12.2640427660 0.9852669090 0.1255251932
H 10.8161681954 1.7125802254 0.8453256085
H 10.9660759009 -1.9473646581 -1.1310083893
H 12.3653371541 -1.0650894561 -0.4903018402
H 11.3196670248 -1.9885060500 0.6172668351
H 8.7896405690 1.9161649935 -0.0923624645
H 6.3735637201 1.7338665054 -0.0102809027
H -6.7404794693 -2.5231770238 0.1330297895
H -9.1562492370 -2.3907300466 0.0353612263
58
step=7 E=-2401.204612648262 Eh
C -11.2537649441 1.1549950019 -0.1562390798
N -10.6159662648 -0.1387323814 -0.1989776191
C -11.4121878215 -1.3345701617 -0.0678197892
C -9.2406897232 -0.2211046644 -0.1168708556
C -8.4337567488 0.9362647420 -0.1408475636
C -7.0501418376 0.8440539555 -0.0731761768
C -6.3894885640 -0.3876664834 0.0255871384
C -4.9193038683 -0.4830734527 0.0836203591
C -4.1402513239 -1.6142825747 0.1215135167
C -2.7448217407 -1.3338156600 0.1585287719
C -2.4725444136 0.0083159713 0.1500414095
C -1.1459274522 0.6315560495 0.1657029246
C -0.8740110594 1.9750171099 0.1839601723
S 0.8201925682 2.2373460063 0.1805155226
C 1.0597884325 0.5172812827 0.1538138120
C 2.3932254215 -0.0790251252 0.1271247089
C 2.6730190533 -1.4213265430 0.1119959584
C 4.0670713589 -1.6905835123 0.0734749436
C 4.8405583111 -0.5522021887 0.0587560114
C 6.3093019821 -0.4395396477 0.0142727305
C 7.1248694049 -1.5798279884 -0.0059829319
C 8.5086143162 -1.4925472428 -0.0514974263
C 9.1611497452 -0.2395496349 -0.0806956997
N 10.5344020042 -0.1433913263 -0.1260345885
C 11.1775334798 1.1455376738 -0.0407657669
C 11.3343500413 -1.3327055252 -0.2930594126
C 8.3408348103 0.9091013210 -0.0616234634
C 6.9578634744 0.8020007878 -0.0140297721
S 3.8415799753 0.8591667154 0.0950595671
N -0.0375395765 -0.1782287544 0.1519326602
S -3.9264838312 0.9364312010 0.1000369294
C -7.1925468090 -1.5360376554 0.0614687579
C -8.5768197977 -1.4628209815 -0.0047227999
H -11.0078247308 1.7192557244 0.7636450592
H -12.3433650419 1.0243959358 -0.1903649753
H -10.9682458997 1.7825562129 -1.0190814438
H -12.4723249981 -1.0816114302 -0.2013322163
H -11.2985668008 -1.8196953784 0.9213123986
H -11.1532944792 -2.0815585800 -0.8380149805
H -8.8860815294 1.9260018675 -0.2197198221
H -6.4695614359 1.7723403661 -0.1019923985
H -4.5509937562 -2.6260105999 0.1152194449
H -1.9517801937 -2.0830261237 0.1865964887
H -1.5808556472 2.8047334042 0.1986365146
H 1.8835853596 -2.1748888730 0.1261690053
H 4.4845614725 -2.6990448921 0.0539526139
H 6.6704678677 -2.5744513961 0.0191211558
H 9.0893704925 -2.4163825322 -0.0537668472
H 11.0206553819 1.7646910150 -0.9450568443
H 12.2590489059 1.0054104852 0.0888102790
H 10.8140762764 1.7221461325 0.8272915564
H 10.9857086279 -1.9404584683 -1.1462659637
H 12.3745766347 -1.0461449682 -0.4973418868
H 11.3309401398 -1.9805555067 0.6042787651
H 8.7839412291 1.9055364883 -0.0956634915
H 6.3687498995 1.7254487463 -0.0052071165
H -6.7287255163 -2.5230248016 0.1480904890
H -9.1471345927 -2.3921600721 0.0318895165
58
step=8 E=-2401.204688008300 Eh
C -11.2514085182 1.1848598287 -0.1693366381
N -10.6176838450 -0.1107461881 -0.1974141769
C -11.4229342761 -1.2992988851 -0.0597840551
C -9.2428108791 -0.2010106090 -0.1168907225
C -8.4212351731 0.9458894170 -0.1462612600
C -7.0384478582 0.8419694066 -0.0796506312
C -6.3917262262 -0.3961570369 0.0240656170
C -4.9224984592 -0.5055806660 0.0807558039
C -4.1392376184 -1.6340926030 0.1133641722
C -2.7431595367 -1.3586844922 0.1517763611
C -2.4705524422 -0.0168408345 0.1496048747
C -1.1458614431 0.6094036332 0.1689608957
C -0.8821575834 1.9541394544 0.1986938479
S 0.8116008907 2.2208914065 0.1960438633
C 1.0611161709 0.5028180494 0.1549407828
C 2.3938618451 -0.0943910570 0.1240768975
C 2.6744540582 -1.4364050478 0.1012701463
C 4.0689138192 -1.7022666396 0.0610781051
C 4.8438235873 -0.5650098873 0.0526302894
C 6.3119645291 -0.4464621303 0.0101779587
C 7.1329463372 -1.5826010806 -0.0082042475
C 8.5160119434 -1.4872120496 -0.0514317431
C 9.1632883890 -0.2317592940 -0.0801435822
N 10.5355449068 -0.1246862718 -0.1229726002
C 11.1540104403 1.1762646347 -0.0447628117
C 11.3519216108 -1.3043187301 -0.2772614751
C 8.3374601603 0.9127076369 -0.0620789026
C 6.9552784099 0.7977715158 -0.0171253424
S 3.8424210699 0.8443261543 0.0964598346
N -0.0341426126 -0.1958965434 0.1471908263
S -3.9255600923 0.9105061476 0.1023443345
C -7.2084663944 -1.5345191269 0.0656640671
C -8.5918270138 -1.4487549235 0.0003324704
H -11.0092544140 1.7561713880 0.7470092613
H -12.3410553842 1.0576154203 -0.2088899885
H -10.9588295681 1.8040828850 -1.0355898466
H -12.4811268162 -1.0392975066 -0.1937916108
H -11.3122127270 -1.7800053237 0.9315990299
H -11.1703928546 -2.0523214645 -0.8260279192
H -8.8626277010 1.9398128848 -0.2288693642
H -6.4487497838 1.7640158299 -0.1131681560
H -4.5496313708 -2.6452817031 0.1021246741
H -1.9513538675 -2.1087994469 0.1763764019
H -1.5925462589 2.7801257357 0.2216971886
H 1.8861602451 -2.1907216770 0.1113300915
H 4.4867635417 -2.7099659647 0.0355679971
H 6.6839855009 -2.5793365298 0.0165462712
H 9.1005941246 -2.4083020616 -0.0526295607
H 10.9768407887 1.7901155623 -0.9486142216
H 12.2388973976 1.0577679795 0.0753268818
H 10.7869813463 1.7479489311 0.8250376546
H 11.0245516954 -1.9172526507 -1.1351132923
H 12.3915848873 -1.0058679481 -0.4654398955
H 11.3424904800 -1.9512633414 0.6204157611
H 8.7756815069 1.9111416661 -0.0942594311
H 6.3621489577 1.7182043551 -0.0094406510
H -6.7556968980 -2.5256345850 0.1572338174
H -9.1714677257 -2.3718686781 0.0416769333
58
step=9 E=-2401.204749867627 Eh
C -11.2357684728 1.2104886423 -0.1658484983
N -10.6182440172 -0.0926966760 -0.1809467623
C -11.4353214371 -1.2714374092 -0.0324982391
C -9.2443747623 -0.1967663010 -0.1092913740
C -8.4218527133 0.9484739402 -0.1523010241
C -7.0397036464 0.8361460786 -0.0944899134
C -6.3951798813 -0.4022449290 0.0134232758
C -4.9270680663 -0.5182495430 0.0622609887
C -4.1466612938 -1.6488727264 0.0854291054
C -2.7513672675 -1.3725961798 0.1217302399
C -2.4714017800 -0.0322286596 0.1277452959
C -1.1493556021 0.5980310928 0.1509929130
C -0.8890894669 1.9430660231 0.1943953504
S 0.8040871088 2.2154900043 0.1939781594
C 1.0597881657 0.4982145452 0.1364998223
C 2.3921639864 -0.0979282232 0.1036403770
C 2.6794091516 -1.4385663123 0.0719571327
C 4.0743038318 -1.6995838237 0.0344417755
C 4.8464205067 -0.5606298846 0.0367933246
C 6.3137721837 -0.4377516895 0.0023969852
C 7.1364276887 -1.5722521605 -0.0097311685
C 8.5193824996 -1.4764275077 -0.0446787393
C 9.1651916589 -0.2202233988 -0.0703911922
N 10.5375864664 -0.1108782251 -0.1049913176
C 11.1561749047 1.1899319352 -0.0331273731
C 11.3566129040 -1.2901259453 -0.2428105914
C 8.3378076893 0.9232842826 -0.0581576073
C 6.9558938548 0.8069730503 -0.0220695226
S 3.8388997921 0.8448544454 0.0863911698
N -0.0344722951 -0.2023532584 0.1201430386
S -3.9261230220 0.8958625501 0.0864713468
C -7.2166540090 -1.5361976323 0.0676530020
C -8.5998413630 -1.4474812620 0.0111711617
H -10.9869651775 1.7868454005 0.7450817052
H -12.3265145421 1.0972846764 -0.2055160913
H -10.9338633619 1.8169032505 -1.0374235567
H -12.4912109905 -1.0007794202 -0.1597410221
H -11.3221433842 -1.7480337454 0.9600398737
H -11.1964651728 -2.0303415345 -0.7968074242
H -8.8601024432 1.9430825461 -0.2379998206
H -6.4462409206 1.7545079399 -0.1381309867
H -4.5579889379 -2.6589316323 0.0691780107
H -1.9617643745 -2.1240321834 0.1400822821
H -1.6015352708 2.7658556586 0.2268079041
H 1.8946009295 -2.1955066727 0.0743307828
H 4.4949322434 -2.7051918711 0.0030296020
H 6.6883403311 -2.5687035071 0.0136329086
H 9.1038174926 -2.3968776752 -0.0419204266
H 10.9700475543 1.8010476954 -0.9363257968
H 12.2417254916 1.0720999205 0.0767572643
H 10.7967356976 1.7629214217 0.8386607616
H 11.0479717747 -1.9027913980 -1.1074326888
H 12.3998106219 -0.9918650004 -0.4076958578
H 11.3271440132 -1.9360582082 0.6544874277
H 8.7745163030 1.9218068120 -0.0873181994
H 6.3620880911 1.7261412875 -0.0188497365
H -6.7668776192 -2.5274519588 0.1637792289
H -9.1825841818 -2.3674928414 0.0627077584
58
step=10 E=-2401.204878876975 Eh
C -11.2612080381 1.2033527095 -0.1543611378
N -10.6278098902 -0.0920244005 -0.1453859151
C -11.4263028483 -1.2797071584 0.0294908079
C -9.2520880868 -0.1790681888 -0.0958207116
C -8.4333793288 0.9677543157 -0.1655642664
C -7.0501837571 0.8618698309 -0.1266053903
C -6.3968896188 -0.3711107112 -0.0116412563
C -4.9289677326 -0.4860984203 0.0217293162
C -4.1535654682 -1.6203769946 0.0251251220
C -2.7576785053 -1.3489758621 0.0574084652
C -2.4735186581 -0.0093288638 0.0798438465
C -1.1491487922 0.6147147901 0.1102635693
C -0.8832355703 1.9576016359 0.1814940276
S 0.8104891986 2.2267777274 0.1874353616
C 1.0600409570 0.5096682506 0.0948842982
C 2.3922791998 -0.0853849766 0.0573419165
C 2.6828819499 -1.4249170039 0.0058110055
C 4.0780201478 -1.6836487045 -0.0254797751
C 4.8481782679 -0.5436497782 0.0016134013
C 6.3154519118 -0.4212043726 -0.0150939069
C 7.1367333551 -1.5565268540 -0.0151668926
C 8.5203393462 -1.4650214042 -0.0317130117
C 9.1668695221 -0.2089805696 -0.0488187473
N 10.5402816663 -0.1064914361 -0.0649879664
C 11.1692719175 1.1898058374 -0.0057987138
C 11.3526827364 -1.2934870399 -0.1680565888
C 8.3419185021 0.9367801720 -0.0486434245
C 6.9597705431 0.8224631247 -0.0318553520
S 3.8379691183 0.8599708252 0.0650147776
N -0.0364297339 -0.1876003180 0.0619308546
S -3.9247509913 0.9257647596 0.0559043988
C -7.2137522042 -1.5065610855 0.0680254245
C -8.5977847003 -1.4239954460 0.0299973926
H -11.0170009765 1.8005032886 0.7440590424
H -12.3502944506 1.0761598038 -0.1887234830
H -10.9689908935 1.7954363949 -1.0386150816
H -12.4877054314 -1.0245110119 -0.0798256127
H -11.2876052749 -1.7435289784 1.0244018973
H -11.1916809693 -2.0435123893 -0.7311361706
H -8.8759080365 1.9595233867 -0.2562648983
H -6.4618577598 1.7818396333 -0.1906170321
H -4.5689316679 -2.6282513194 -0.0023447960
H -1.9708596138 -2.1030307245 0.0623410119
H -1.5928390825 2.7812095960 0.2326043134
H 1.8998134327 -2.1829048662 -0.0093884820
H 4.5002630026 -2.6876836189 -0.0702851141
H 6.6862462865 -2.5515864483 0.0038377896
H 9.1024670886 -2.3864508912 -0.0220340386
H 10.9724407881 1.7974558395 -0.9083892001
H 12.2552090773 1.0640897674 0.0857363662
H 10.8283023428 1.7695072960 0.8691073016
H 11.0760810195 -1.9045760872 -1.0446814682
H 12.4046627438 -1.0054317351 -0.2861801661
H 11.2773329438 -1.9368204842 0.7278104047
H 8.7799788804 1.9344160595 -0.0703678149
H 6.3673797974 1.7420346182 -0.0372140029
H -6.7586529911 -2.4942161789 0.1723703929
H -9.1749723953 -2.3457971573 0.1021655494
58
step=11 E=-2401.204995413089 Eh
C -11.2501656098 1.2377285117 -0.1130490153
N -10.6296652141 -0.0634605402 -0.0706114314
C -11.4293617650 -1.2434513589 0.1490082552
C -9.2541778460 -0.1596343341 -0.0639338985
C -8.4371570177 0.9845905186 -0.1818594336
C -7.0532277014 0.8785431061 -0.1808145255
C -6.4005079222 -0.3544761346 -0.0578706722
C -4.9317559969 -0.4670700644 -0.0564996007
C -4.1569944957 -1.6014266742 -0.0906397189
C -2.7588407792 -1.3383205246 -0.0703528613
C -2.4788868508 0.0017490361 -0.0209688119
C -1.1500973233 0.6164505502 0.0167046190
C -0.8832011862 1.9561988911 0.1321065951
S 0.8103889934 2.2220347163 0.1482357323
C 1.0566627262 0.5083364349 -0.0016014443
C 2.3923372717 -0.0795775093 -0.0454743379
C 2.6856268895 -1.4168391023 -0.1299566751
C 4.0823231822 -1.6705990494 -0.1457711866
C 4.8475756732 -0.5288290500 -0.0734982596
C 6.3145947315 -0.4018779757 -0.0536702325
C 7.1397627458 -1.5345028595 -0.0266828688
C 8.5233243484 -1.4354907754 -0.0039323873
C 9.1622871980 -0.1753838900 -0.0052808553
N 10.5354188051 -0.0745218596 0.0190411943
C 11.1592112492 1.2257148920 0.0536287709
C 11.3464810453 -1.2669247425 -0.0119341250
C 8.3344496615 0.9683066225 -0.0335768951
C 6.9531250077 0.8452647745 -0.0565952122
S 3.8336508422 0.8706963989 0.0102978986
N -0.0397871608 -0.1873974872 -0.0595393640
S -3.9271514467 0.9428478310 -0.0034592179
C -7.2145754232 -1.4884444683 0.0681408679
C -8.5992752996 -1.4042150688 0.0673926081
H -10.9908812117 1.8600120448 0.7642446970
H -12.3409562303 1.1207217257 -0.1329217845
H -10.9610582747 1.7998148950 -1.0179818929
H -12.4923308050 -0.9810773173 0.0763467806
H -11.2575204248 -1.6940571820 1.1448497949
H -11.2292484903 -2.0208282267 -0.6085279398
H -8.8818014687 1.9753126176 -0.2784316287
H -6.4652984337 1.7960867104 -0.2812785949
H -4.5762206750 -2.6075658082 -0.1371074573
H -1.9727076877 -2.0938224789 -0.0921551288
H -1.5920554139 2.7787992606 0.2132854570
H 1.9046180073 -2.1764101480 -0.1776204082
H 4.5090558663 -2.6721564593 -0.2119000948
H 6.6933035714 -2.5320650425 -0.0154393963
H 9.1105169205 -2.3538300960 0.0224833116
H 10.9430376968 1.8194140498 -0.8535882185
H 12.2471850689 1.1053481594 0.1250923445
H 10.8314889381 1.8178196736 0.9265151165
H 11.1360071239 -1.8866654098 -0.9019313293
H 12.4061863498 -0.9852197977 -0.0469503660
H 11.1966394772 -1.9006797773 0.8812786931
H 8.7679599550 1.9684642799 -0.0423724546
H 6.3554705414 1.7617329402 -0.0816094733
H -6.7565569062 -2.4741403328 0.1838273349
H -9.1757452642 -2.3232445524 0.1765513956
58
step=12 E=-2401.205066345206 Eh
C -11.2628937965 1.2359764569 -0.0444649818
N -10.6305251329 -0.0593415784 0.0081472833
C -11.4251611858 -1.2347509168 0.2689490768
C -9.2549928356 -0.1519940952 -0.0287327039
C -8.4423131761 0.9906647903 -0.1891618171
C -7.0583706277 0.8867921257 -0.2270183101
C -6.4010826043 -0.3443078983 -0.1031191473
C -4.9313513068 -0.4527629373 -0.1349989518
C -4.1548359825 -1.5844678838 -0.2006330774
C -2.7570774355 -1.3131321484 -0.1967617118
C -2.4784628908 0.0260348255 -0.1290948646
C -1.1520984001 0.6478769104 -0.0898213642
C -0.8906978439 1.9863051389 0.0500726539
S 0.8016940802 2.2553001258 0.0748697248
C 1.0547767872 0.5457052838 -0.1062399349
C 2.3912631488 -0.0421946646 -0.1495181893
C 2.6800297530 -1.3785295183 -0.2561136499
C 4.0763774982 -1.6380958842 -0.2535756301
C 4.8424161980 -0.4997629987 -0.1440761731
C 6.3094329109 -0.3788541423 -0.0892408062
C 7.1264541491 -1.5169985362 -0.0385832003
C 8.5093391111 -1.4223282344 0.0220518237
C 9.1556305771 -0.1661285690 0.0376300290
N 10.5273906798 -0.0693014942 0.1025127301
C 11.1563190702 1.2292887452 0.1267429002
C 11.3290213225 -1.2683480378 0.1280437850
C 8.3336992514 0.9806003790 -0.0162199516
C 6.9523632377 0.8663019792 -0.0771485767
S 3.8334700852 0.9019752676 -0.0500109518
N -0.0392803551 -0.1513935782 -0.1797517390
S -3.9299126932 0.9591291539 -0.0724699673
C -7.2086732796 -1.4781412468 0.0636557836
C -8.5932371213 -1.3934677639 0.1013997422
H -10.9896688913 1.8774266442 0.8151783867
H -12.3532657880 1.1088353042 -0.0372639943
H -10.9997019486 1.7838699636 -0.9663596022
H -12.4895278797 -0.9682683279 0.2333474894
H -11.2189831726 -1.6757185414 1.2629322548
H -11.2561638101 -2.0216845488 -0.4871895286
H -8.8907660933 1.9801125114 -0.2874540607
H -6.4748812096 1.8039735350 -0.3598865358
H -4.5718082607 -2.5918334077 -0.2585105222
H -1.9679611968 -2.0654978385 -0.2420834740
H -1.6029968325 2.8055055533 0.1467784507
H 1.8964041683 -2.1343354129 -0.3313612797
H 4.5017885407 -2.6401490948 -0.3329085249
H 6.6748346497 -2.5131611593 -0.0369068153
H 9.0921868961 -2.3435499553 0.0640687137
H 10.9446501864 1.8138767965 -0.7876536442
H 12.2441882233 1.1052900954 0.2005340549
H 10.8288953252 1.8335397393 0.9924499205
H 11.1650574713 -1.8966503474 -0.7667469743
H 12.3915727950 -0.9949959900 0.1539792294
H 11.1214778431 -1.8920034342 1.0171074937
H 8.7729010238 1.9789702889 -0.0120842136
H 6.3595815729 1.7863308162 -0.1194806875
H -6.7458062414 -2.4618675112 0.1840073501
H -9.1651510026 -2.3117239864 0.2426520799
58
step=13 E=-2401.205106888860 Eh
C -11.2651415928 1.2569658871 0.0056942787
N -10.6328391007 -0.0372922238 0.0825219668
C -11.4164980054 -1.2068166819 0.3974170301
C -9.2596917996 -0.1333322335 0.0026350982
C -8.4492351405 1.0011176071 -0.2178508195
C -7.0674052380 0.8920251805 -0.2953069712
C -6.4110290853 -0.3375818947 -0.1539225018
C -4.9424553739 -0.4477941402 -0.2185269975
C -4.1625721938 -1.5745789214 -0.3175031915
C -2.7655638146 -1.2977670314 -0.3277462360
C -2.4886558014 0.0399301151 -0.2360337617
C -1.1651093178 0.6676217024 -0.1876073507
C -0.9016208871 2.0028236710 -0.0237674995
S 0.7902996258 2.2719472674 0.0169314124
C 1.0427025435 0.5653970345 -0.1916570572
C 2.3779946028 -0.0250777049 -0.2353145463
C 2.6679000202 -1.3578000027 -0.3756881449
C 4.0639588210 -1.6192935578 -0.3581763116
C 4.8307781463 -0.4875462042 -0.2007791442
C 6.2968047611 -0.3681870173 -0.1154297008
C 7.1181842315 -1.5023826899 -0.0542571882
C 8.4990950516 -1.4075365835 0.0354350503
C 9.1436680464 -0.1508795819 0.0737821289
N 10.5127173001 -0.0426099340 0.1703121968
C 11.1355977274 1.2586563876 0.1912990204
C 11.3191334452 -1.2363341031 0.2378552334
C 8.3179848139 0.9923674725 0.0103635753
C 6.9381248639 0.8770341408 -0.0815497019
S 3.8204417487 0.9105600466 -0.0772017298
N -0.0513474892 -0.1291280352 -0.2835267727
S -3.9429666565 0.9646021749 -0.1395892781
C -7.2156899832 -1.4635598138 0.0697719118
C -8.5982742185 -1.3731605513 0.1472796927
H -10.9706044166 1.9241030289 0.8383990526
H -12.3551868422 1.1319553347 0.0433657516
H -11.0238942716 1.7759554899 -0.9387187262
H -12.4813710515 -0.9399766086 0.4004947342
H -11.1705786919 -1.6284611748 1.3906929293
H -11.2777029410 -2.0086535200 -0.3494789486
H -8.8982439049 1.9886731809 -0.3323908889
H -6.4853589717 1.8020983620 -0.4761143467
H -4.5772939904 -2.5818411715 -0.3915258090
H -1.9748823010 -2.0465402299 -0.3982516121
H -1.6142582836 2.8206466478 0.0823015741
H 1.8850688069 -2.1099158214 -0.4873476101
H 4.4894517282 -2.6189136920 -0.4631218657
H 6.6693182849 -2.4995660821 -0.0678370619
H 9.0818933064 -2.3286119943 0.0810656392
H 10.9156204529 1.8400045177 -0.7228667927
H 12.2248455266 1.1397904683 0.2570800338
H 10.8104113974 1.8630604707 1.0581027277
H 11.2065163687 -1.8682921078 -0.6625786638
H 12.3772385200 -0.9564561132 0.3211415379
H 11.0668293259 -1.8584309304 1.1160680935
H 8.7547951242 1.9917177986 0.0332073625
H 6.3450437653 1.7965301823 -0.1307674371
H -6.7511990690 -2.4442914930 0.2075135640
H -9.1684769154 -2.2846633996 0.3337864224
58
step=14 E=-2401.205226708998 Eh
C -11.2789600251 1.2617427634 -0.0257110601
N -10.6375617815 -0.0249160176 0.0874383294
C -11.4206912677 -1.1813964180 0.4454368280
C -9.2650025865 -0.1221403722 -0.0017568137
C -8.4618903250 1.0067036462 -0.2717552665
C -7.0811105789 0.8963469122 -0.3596373414
C -6.4189882274 -0.3248134254 -0.1803361883
C -4.9515289938 -0.4350341591 -0.2511779978
C -4.1727732855 -1.5602031263 -0.3718476909
C -2.7762654634 -1.2821590304 -0.3774530662
C -2.4982232599 0.0532854241 -0.2592711262
C -1.1757881146 0.6807521277 -0.1937006330
C -0.9181019286 2.0148955740 -0.0145875308
S 0.7732889068 2.2871700869 0.0405395312
C 1.0324457785 0.5828232769 -0.1809516134
C 2.3685669758 -0.0041626636 -0.2322496875
C 2.6662699946 -1.3303369546 -0.4141569998
C 4.0630473288 -1.5866874004 -0.3992327624
C 4.8248126722 -0.4585345768 -0.2002563315
C 6.2903567819 -0.3387528182 -0.1114434976
C 7.1069004453 -1.4766252361 -0.0696442476
C 8.4877980641 -1.3864733171 0.0173709631
C 9.1373867367 -0.1329538703 0.0749240302
N 10.5070515114 -0.0293649749 0.1695557514
C 11.1269580336 1.2724851420 0.1955645869
C 11.3162061130 -1.2213918521 0.2350891878
C 8.3161029729 1.0144909901 0.0343446781
C 6.9360121281 0.9034222791 -0.0579239803
S 3.8070700706 0.9289059565 -0.0267122320
N -0.0594799999 -0.1127008959 -0.2859820255
S -3.9523843083 0.9752871530 -0.1387754852
C -7.2177984390 -1.4436857994 0.0907641945
C -8.5996539547 -1.3548320037 0.1792708439
H -10.9812845223 1.9570716598 0.7820581362
H -12.3676694080 1.1314242867 0.0260310311
H -11.0491934118 1.7501511988 -0.9887578773
H -12.4841406734 -0.9099167481 0.4593401865
H -11.1597101923 -1.5769024252 1.4451985642
H -11.2960475976 -2.0026037941 -0.2823282872
H -8.9152720762 1.9876259970 -0.4188498855
H -6.5028367597 1.7986010688 -0.5838973491
H -4.5883877325 -2.5647015274 -0.4690888631
H -1.9861351046 -2.0290171138 -0.4641225881
H -1.6338790180 2.8294371018 0.0905615820
H 1.8879533546 -2.0809923167 -0.5574233438
H 4.4935810432 -2.5791969360 -0.5401331398
H 6.6544067694 -2.4714008296 -0.0990721683
H 9.0672690705 -2.3099204236 0.0441644927
H 10.8858562992 1.8640550798 -0.7060096855
H 12.2176390521 1.1553439077 0.2348473486
H 10.8196043692 1.8646167649 1.0769669816
H 11.2220558669 -1.8436945715 -0.6738085683
H 12.3718432380 -0.9399431427 0.3407186131
H 11.0494986304 -1.8530950288 1.1015226490
H 8.7565708835 2.0114884156 0.0749004854
H 6.3457722039 1.8247485829 -0.0922501648
H -6.7478260359 -2.4165182493 0.2595605345
H -9.1651327653 -2.2601645381 0.4040013163
58
step=15 E=-2401.205318918284 Eh
C -11.2751405076 1.2716689346 -0.0802415203
N -10.6408004492 -0.0171703026 0.0463275132
C -11.4250269978 -1.1746614324 0.3984684311
C -9.2673113973 -0.1157187281 -0.0241838856
C -8.4599222355 1.0113346540 -0.2880403597
C -7.0783603735 0.9004498883 -0.3594340134
C -6.4199547646 -0.3206357056 -0.1676548428
C -4.9524698167 -0.4332699844 -0.2237650327
C -4.1771889233 -1.5605560124 -0.3458526171
C -2.7801010694 -1.2868201247 -0.3382738836
C -2.4986578294 0.0473516336 -0.2099841209
C -1.1751077162 0.6713110139 -0.1371672156
C -0.9198067506 2.0057551158 0.0433086641
S 0.7717568669 2.2790949706 0.0965172258
C 1.0331019150 0.5749866208 -0.1245691991
C 2.3702900070 -0.0087650253 -0.1821528750
C 2.6673329910 -1.3339399544 -0.3738839629
C 4.0644041882 -1.5874841602 -0.3689508246
C 4.8259437576 -0.4588614408 -0.1694878125
C 6.2917127229 -0.3362267450 -0.0947751767
C 7.1117514239 -1.4723902613 -0.0656332130
C 8.4935639482 -1.3787065551 0.0046746020
C 9.1391035128 -0.1229082615 0.0565781020
N 10.5101537266 -0.0189431888 0.1327766094
C 11.1300365574 1.2831264330 0.1544214332
C 11.3228306459 -1.2095680774 0.1838505375
C 8.3140281931 1.0224182265 0.0297732148
C 6.9334142879 0.9081399187 -0.0457246521
S 3.8081701118 0.9266520597 0.0191251519
N -0.0582679054 -0.1217556450 -0.2295514581
S -3.9507863632 0.9734932492 -0.0925229964
C -7.2226211489 -1.4376826345 0.0986257216
C -8.6054358086 -1.3481549424 0.1698939526
H -10.9833753527 1.9693877928 0.7274783556
H -12.3647540802 1.1466645307 -0.0403653552
H -11.0324256372 1.7544379585 -1.0428277888
H -12.4892540880 -0.9066929587 0.3994838580
H -11.1740200376 -1.5664036473 1.4021286795
H -11.2895916789 -1.9975920020 -0.3252633422
H -8.9112107650 1.9915758799 -0.4442750127
H -6.4963196818 1.8005845288 -0.5811502423
H -4.5959159285 -2.5623873687 -0.4549069422
H -1.9918786206 -2.0353279222 -0.4251798846
H -1.6362683248 2.8194702738 0.1475091250
H 1.8892233196 -2.0845477237 -0.5172365634
H 4.4955437946 -2.5781433624 -0.5192120939
H 6.6615168782 -2.4681379858 -0.0923449425
H 9.0761913505 -2.3002143801 0.0221722438
H 10.8766576483 1.8773974993 -0.7418201335
H 12.2209538904 1.1663382839 0.1784762731
H 10.8350452005 1.8726199362 1.0416279832
H 11.2183636254 -1.8287957876 -0.7257941842
H 12.3789624928 -0.9259534082 0.2755605165
H 11.0702379454 -1.8449585838 1.0517072178
H 8.7517373185 2.0203876333 0.0673050838
H 6.3399544173 1.8275333544 -0.0710837291
H -6.7545899681 -2.4097009051 0.2763589654
H -9.1742377345 -2.2519953099 0.3907317313
58
step=16 E=-2401.205397289139 Eh
C -11.2786518172 1.2708508343 -0.1594472586
N -10.6449015648 -0.0165553622 -0.0175110153
C -11.4336270346 -1.1748160870 0.3222892860
C -9.2698087657 -0.1115607656 -0.0595504264
C -8.4627306292 1.0186290259 -0.3100309450
C -7.0796857877 0.9123110298 -0.3556715120
C -6.4187400166 -0.3051424214 -0.1487868569
C -4.9503560766 -0.4171704391 -0.1820182403
C -4.1729805580 -1.5424222182 -0.3089542509
C -2.7751432146 -1.2741934444 -0.2804906074
C -2.4972551765 0.0589486330 -0.1326628625
C -1.1722062531 0.6783746806 -0.0479022441
C -0.9090265214 2.0109974939 0.1362320018
S 0.7835061987 2.2790560139 0.1866437919
C 1.0358023080 0.5744693339 -0.0380066601
C 2.3720664641 -0.0107697771 -0.1047761305
C 2.6674149716 -1.3344512632 -0.3093748144
C 4.0640452593 -1.5900232035 -0.3195701353
C 4.8267360696 -0.4615982314 -0.1212970389
C 6.2932207155 -0.3373401509 -0.0679876963
C 7.1183128118 -1.4705615621 -0.0541981076
C 8.5010871161 -1.3704798735 -0.0093334588
C 9.1411154214 -0.1114581135 0.0295693106
N 10.5133236985 -0.0059470406 0.0766722875
C 11.1355977280 1.2956789251 0.0866187842
C 11.3268784611 -1.1967546938 0.1092999829
C 8.3117054533 1.0309887502 0.0195790658
C 6.9306145218 0.9096046813 -0.0297753338
S 3.8117651442 0.9234897940 0.0870801642
N -0.0583917700 -0.1186159155 -0.1433534560
S -3.9497871370 0.9864812128 -0.0197763101
C -7.2219841695 -1.4243289515 0.1063474392
C -8.6064497732 -1.3406638894 0.1507179148
H -11.0010525634 1.9719259803 0.6503743256
H -12.3685742491 1.1444069487 -0.1371149381
H -11.0210759650 1.7506649381 -1.1197131062
H -12.4982158024 -0.9091236111 0.3016865611
H -11.2014531044 -1.5633547981 1.3317182258
H -11.2828005760 -1.9997536839 -0.3961912169
H -8.9152890605 1.9965373832 -0.4768947925
H -6.4969175873 1.8136670711 -0.5698018517
H -4.5926029762 -2.5414525393 -0.4385701037
H -1.9865672784 -2.0222997855 -0.3694825042
H -1.6214027885 2.8280696351 0.2417099233
H 1.8873783837 -2.0833714969 -0.4513553121
H 4.4933777270 -2.5796450714 -0.4820339862
H 6.6718035648 -2.4682454664 -0.0730849019
H 9.0888165289 -2.2890119642 -0.0025372923
H 10.8650090933 1.8911556203 -0.8038083975
H 12.2264640732 1.1777097184 0.0885049031
H 10.8599128734 1.8854399486 0.9799201461
H 11.2028121379 -1.8146981024 -0.7988378817
H 12.3845307118 -0.9128267085 0.1773793600
H 11.0945560170 -1.8335535462 0.9818454058
H 8.7452170818 2.0309499251 0.0487852946
H 6.3324157105 1.8262413868 -0.0446225825
H -6.7524769248 -2.3936050179 0.2954176986
H -9.1754024522 -2.2463544587 0.3627692708
58
step=17 E=-2401.205489988423 Eh
C -11.2800149181 1.2680862260 -0.2777201730
N -10.6463765117 -0.0160628657 -0.1080337322
C -11.4381583246 -1.1748254535 0.2231396321
C -9.2702818753 -0.1057471912 -0.1108961937
C -8.4591390781 1.0234738212 -0.3536439256
C -7.0749768750 0.9227265950 -0.3643572448
C -6.4194656135 -0.2917799160 -0.1253582668
C -4.9504446840 -0.3987227493 -0.1283572712
C -4.1706139287 -1.5201475835 -0.2724836623
C -2.7745885117 -1.2474340418 -0.2129066259
C -2.5005425273 0.0813323513 -0.0252205846
C -1.1773748009 0.7013644488 0.0818307141
C -0.9162245746 2.0329882401 0.2752521857
S 0.7762243223 2.3012829566 0.3286938626
C 1.0307163342 0.5985565181 0.0938180189
C 2.3661922396 0.0132009065 0.0125916396
C 2.6582527786 -1.3062788529 -0.2211204530
C 4.0549135126 -1.5603039289 -0.2543524836
C 4.8210280159 -0.4361217472 -0.0474771413
C 6.2885884891 -0.3126262074 -0.0257718965
C 7.1087277915 -1.4490964267 -0.0389384666
C 8.4924999912 -1.3555606272 -0.0343014168
C 9.1383461875 -0.0991144503 -0.0120290763
N 10.5113440203 0.0029043809 -0.0101924776
C 11.1351954563 1.3038324838 -0.0158377046
C 11.3229301222 -1.1895365021 -0.0077166278
C 8.3138756559 1.0465505215 0.0080887457
C 6.9311487915 0.9319934053 -0.0008752331
S 3.8086784732 0.9435416509 0.2038535398
N -0.0629098815 -0.0944011558 -0.0158412633
S -3.9567158214 1.0021765941 0.0913339037
C -7.2250121907 -1.4104876386 0.1252088718
C -8.6103799602 -1.3304406518 0.1323654243
H -11.0192199364 1.9796402973 0.5285681479
H -12.3699437317 1.1393379138 -0.2742269938
H -11.0056004740 1.7370702651 -1.2388389437
H -12.5031021472 -0.9141249605 0.1743839730
H -11.2290047769 -1.5535964634 1.2413389544
H -11.2663264896 -2.0055467775 -0.4840555667
H -8.9105316587 1.9975924901 -0.5445143088
H -6.4881746438 1.8218375867 -0.5777400764
H -4.5867574651 -2.5150878154 -0.4404765709
H -1.9824744934 -1.9904841508 -0.3124073373
H -1.6293292553 2.8494571026 0.3817383963
H 1.8763110673 -2.0521829186 -0.3690152231
H 4.4824579303 -2.5459572979 -0.4438130278
H 6.6570021833 -2.4446328014 -0.0481660413
H 9.0765640707 -2.2764816233 -0.0474804924
H 10.8370764821 1.9025815111 -0.8952692183
H 12.2255606019 1.1849071975 -0.0492768704
H 10.8886873745 1.8908398672 0.8877930031
H 11.1665368912 -1.8053646111 -0.9124021304
H 12.3830347956 -0.9080175179 0.0241591694
H 11.1191566272 -1.8274252085 0.8711298268
H 8.7531460757 2.0444538063 0.0273173498
H 6.3366443251 1.8511473456 0.0030683807
H -6.7565587621 -2.3752579615 0.3391821210
H -9.1828114635 -2.2348951672 0.3410173562
58
step=18 E=-2401.205541084741 Eh
C -11.2880057868 1.2834691302 -0.4195264304
N -10.6521990671 0.0090551280 -0.1935366115
C -11.4464722371 -1.1466521366 0.1431673610
C -9.2761092227 -0.0723762646 -0.1588324296
C -8.4636101949 1.0542884023 -0.4104248285
C -7.0792096572 0.9555057997 -0.3865412930
C -6.4256242425 -0.2500785315 -0.1008159377
C -4.9569136540 -0.3568208200 -0.0801951257
C -4.1780654885 -1.4687613929 -0.2882179913
C -2.7826316679 -1.2033158052 -0.1938709412
C -2.5090688439 0.1095535449 0.0850177852
C -1.1846929920 0.7200440970 0.2251039788
C -0.9286456557 2.0443255105 0.4683054053
S 0.7637541198 2.3122376027 0.5274424695
C 1.0223199461 0.6207311644 0.2252020044
C 2.3588775124 0.0427406037 0.1151685497
C 2.6478145100 -1.2648873422 -0.1804597978
C 4.0444655878 -1.5133121288 -0.2417539942
C 4.8124421699 -0.3980451694 0.0028052439
C 6.2800183504 -0.2732933823 0.0028454649
C 7.1036042535 -1.4071498088 -0.0130954806
C 8.4868449136 -1.3110390797 -0.0391142174
C 9.1301601825 -0.0531167221 -0.0479366050
N 10.5025069504 0.0512253505 -0.0823409691
C 11.1261416588 1.3511297964 -0.1333593009
C 11.3118539949 -1.1421824364 -0.0674871343
C 8.3030685752 1.0906642746 -0.0214365990
C 6.9205286386 0.9726217652 0.0007880459
S 3.8022320308 0.9685781184 0.3238413581
N -0.0698354484 -0.0702367718 0.0923384543
S -3.9651692392 1.0241944864 0.2472427886
C -7.2321623402 -1.3649209061 0.1632368285
C -8.6173923845 -1.2872464292 0.1329904792
H -11.0484625130 2.0224208736 0.3684356068
H -12.3771645445 1.1492054653 -0.4355772561
H -10.9944245795 1.7225639183 -1.3892957379
H -12.5110223679 -0.8907533818 0.0678858243
H -11.2574022455 -1.5049315060 1.1725132373
H -11.2575906923 -1.9907078583 -0.5439714953
H -8.9130579096 2.0216636965 -0.6373313218
H -6.4881266710 1.8487971370 -0.6127698731
H -4.5956912428 -2.4472507371 -0.5329136520
H -1.9898945864 -1.9385075128 -0.3376114132
H -1.6434271368 2.8545866061 0.6074314931
H 1.8648503386 -2.0046983031 -0.3523096418
H 4.4712058040 -2.4883318417 -0.4817202598
H 6.6542900507 -2.4037090833 0.0028760439
H 9.0725262460 -2.2308310436 -0.0524590330
H 10.7891480641 1.9367073644 -1.0073917534
H 12.2136927165 1.2300770528 -0.2147400279
H 10.9199797222 1.9520358741 0.7716607967
H 11.1495237641 -1.7704837196 -0.9629626232
H 12.3726722954 -0.8626064903 -0.0432998094
H 11.1098501564 -1.7669779833 0.8209001066
H 8.7398728177 2.0898517657 -0.0218722872
H 6.3233570070 1.8901082508 0.0050156266
H -6.7644834503 -2.3203906795 0.4179140348
H -9.1925769119 -2.1875285428 0.3524842152
58
step=19 E=-2401.205528146602 Eh
C -11.2800993210 1.3144920457 -0.5280195124
N -10.6566368657 0.0424870778 -0.2575272639
C -11.4645502162 -1.1026787520 0.0826992457
C -9.2821200542 -0.0448939015 -0.1902978761
C -8.4581056509 1.0723955400 -0.4475956664
C -7.0743039400 0.9735713095 -0.3956322788
C -6.4345706822 -0.2302641967 -0.0746245263
C -4.9672420388 -0.3479355770 -0.0350670650
C -4.1891070616 -1.4505118391 -0.2891183848
C -2.7939205020 -1.1942218266 -0.1670017029
C -2.5191055773 0.1026550443 0.1784980259
C -1.1956060191 0.7091073356 0.3454503872
C -0.9356829114 2.0242415276 0.6306012053
S 0.7565275694 2.2913190700 0.6993418722
C 1.0119707618 0.6112817824 0.3380644097
C 2.3493167138 0.0409276644 0.2007044978
C 2.6453464961 -1.2545207423 -0.1388168551
C 4.0416909266 -1.4948127253 -0.2321800518
C 4.8025540767 -0.3802132415 0.0366710690
C 6.2683266402 -0.2439652170 0.0159998397
C 7.0966997806 -1.3745494404 0.0062099190
C 8.4786095541 -1.2682456701 -0.0433042210
C 9.1136880341 -0.0065626804 -0.0812600191
N 10.4848867384 0.1054842338 -0.1376118280
C 11.0955039968 1.4098954046 -0.2145430058
C 11.3043539679 -1.0811166970 -0.1163487089
C 8.2796297707 1.1324542007 -0.0589886578
C 6.8984702731 1.0070159950 -0.0148039414
S 3.7893861194 0.9687449866 0.4180428535
N -0.0805367637 -0.0757860325 0.1866777942
S -3.9753863980 1.0106879029 0.3733457034
C -7.2524212117 -1.3347387589 0.1976494101
C -8.6369997282 -1.2571646446 0.1401400601
H -11.0481566498 2.0728949650 0.2434584964
H -12.3698109964 1.1871352153 -0.5576057055
H -10.9676829634 1.7254364010 -1.5043918074
H -12.5258379792 -0.8424230349 -0.0196285069
H -11.2991951074 -1.4428499417 1.1221407987
H -11.2658975029 -1.9603042336 -0.5847105290
H -8.8997928491 2.0361695283 -0.7033209455
H -6.4741733685 1.8593197049 -0.6281129919
H -4.6082223475 -2.4131196947 -0.5889223794
H -2.0014003566 -1.9233712068 -0.3401520204
H -1.6496532939 2.8302615398 0.7961024706
H 1.8643966423 -1.9935233354 -0.3228283334
H 4.4717014473 -2.4578434005 -0.5125380306
H 6.6533201592 -2.3732578952 0.0490907270
H 9.0702379164 -2.1842726716 -0.0494999189
H 10.7370499011 1.9825710641 -1.0885358161
H 12.1824591928 1.2970497432 -0.3153408590
H 10.9006809430 2.0188674395 0.6876687251
H 11.1383007602 -1.7217637155 -1.0023944836
H 12.3632596755 -0.7928665717 -0.1054221210
H 11.1160375752 -1.6967252883 0.7813196334
H 8.7100241202 2.1342146313 -0.0804790324
H 6.2944149227 1.9201738507 -0.0164443389
H -6.7909334039 -2.2850198809 0.4818518743
H -9.2199439073 -2.1507149234 0.3670563796
58
step=20 E=-2401.205614948256 Eh
C -11.2935497400 1.2911306460 -0.4874976097
N -10.6585373529 0.0236559952 -0.2225299254
C -11.4567802907 -1.1252865133 0.1269932127
C -9.2829617619 -0.0563557504 -0.1710290493
C -8.4695339778 1.0660544717 -0.4384849504
C -7.0850889801 0.9711006538 -0.4000048704
C -6.4342112425 -0.2286238605 -0.0858254347
C -4.9658017590 -0.3362066869 -0.0600945537
C -4.1811739343 -1.4327086885 -0.3199532444
C -2.7868842531 -1.1676530279 -0.2054292999
C -2.5207604106 0.1311634205 0.1394525666
C -1.1995708149 0.7429564960 0.3053715234
C -0.9381617151 2.0564502980 0.5969491838
S 0.7541195211 2.3223081953 0.6680316449
C 1.0094158883 0.6436313355 0.2992171204
C 2.3442126678 0.0673809944 0.1624422137
C 2.6312428252 -1.2302279775 -0.1766946276
C 4.0268596467 -1.4767624446 -0.2652701394
C 4.7955976805 -0.3685973768 0.0074306523
C 6.2620861610 -0.2399525006 -0.0014409047
C 7.0851270827 -1.3743832824 0.0041937636
C 8.4681877700 -1.2755717749 -0.0302662788
C 9.1092558382 -0.0168059163 -0.0663833166
N 10.4815791233 0.0901848033 -0.1045308694
C 11.0980188221 1.3921686294 -0.1760527754
C 11.2982213701 -1.0982672329 -0.0694885489
C 8.2804394468 1.1262663314 -0.0606326762
C 6.8984434440 1.0077507472 -0.0322076427
S 3.7895721517 0.9859336316 0.3858670044
N -0.0840958931 -0.0405124475 0.1432299019
S -3.9817514146 1.0299724633 0.3408092618
C -7.2414788810 -1.3384283528 0.1951706469
C -8.6267857837 -1.2646216189 0.1524719094
H -11.0580502167 2.0519018353 0.2804806678
H -12.3826523291 1.1563803637 -0.5043262706
H -10.9947829093 1.7028113294 -1.4677678251
H -12.5204845193 -0.8710091486 0.0349126930
H -11.2788878895 -1.4629388203 1.1651852996
H -11.2597977123 -1.9825126824 -0.5412844370
H -8.9183955272 2.0276349207 -0.6900407349
H -6.4914667094 1.8597599282 -0.6375086535
H -4.5954965007 -2.3985221039 -0.6160408271
H -1.9901241421 -1.8916105089 -0.3811593702
H -1.6516719678 2.8619248329 0.7667860901
H 1.8462510351 -1.9643739684 -0.3632399217
H 4.4521387425 -2.4420891712 -0.5447427922
H 6.6358049574 -2.3704131852 0.0482815850
H 9.0553312689 -2.1945638522 -0.0246095940
H 10.7555224738 1.9634431651 -1.0573406751
H 12.1861462115 1.2753938352 -0.2591057376
H 10.8912765879 2.0045154428 0.7211043809
H 11.1415825255 -1.7419350149 -0.9548736061
H 12.3574758987 -0.8117999634 -0.0469953931
H 11.0984570807 -1.7102389415 0.8282251331
H 8.7158540788 2.1258621270 -0.0824551415
H 6.2987309902 1.9236167655 -0.0454219208
H -6.7721986426 -2.2865309853 0.4739919287
H -9.2031413403 -2.1606159310 0.3859573361
58
step=21 E=-2401.205679649299 Eh
C -11.3077451310 1.2858108889 -0.4172278949
N -10.6666306647 0.0189869722 -0.1643045321
C -11.4582032162 -1.1304740879 0.1986543183
C -9.2903246258 -0.0604774244 -0.1400243843
C -8.4834310802 1.0632066110 -0.4215971006
C -7.0983180897 0.9718867604 -0.4081756445
C -6.4402823081 -0.2273017173 -0.1070556563
C -4.9710989127 -0.3316272633 -0.1027308818
C -4.1883120492 -1.4273226025 -0.3709050072
C -2.7931194407 -1.1608368556 -0.2694827522
C -2.5251953918 0.1380844657 0.0732797958
C -1.2027826728 0.7476641494 0.2368166532
C -0.9453009874 2.0596818064 0.5383701391
S 0.7468478496 2.3246469315 0.6135889763
C 1.0049893412 0.6484925814 0.2339028856
C 2.3405876361 0.0730185600 0.1013680430
C 2.6310087433 -1.2244453051 -0.2354057817
C 4.0272752213 -1.4721022277 -0.3123437355
C 4.7935288218 -0.3640817364 -0.0330384762
C 6.2606006405 -0.2387997659 -0.0231130201
C 7.0848336454 -1.3717372762 0.0083300696
C 8.4684874377 -1.2730533363 -0.0038187409
C 9.1099892257 -0.0146271848 -0.0409931660
N 10.4826260696 0.0937497748 -0.0537814340
C 11.1029529681 1.3944218700 -0.1221846432
C 11.2981190864 -1.0945786794 0.0049093496
C 8.2812388475 1.1281901753 -0.0625339635
C 6.8990599854 1.0076250985 -0.0567491970
S 3.7845506698 0.9907794506 0.3364335652
N -0.0873644274 -0.0348298269 0.0692821414
S -3.9847289462 1.0364349916 0.2856084151
C -7.2409213918 -1.3389227431 0.1856705247
C -8.6269939619 -1.2684747161 0.1692659855
H -11.0586500316 2.0464752769 0.3465270845
H -12.3968183016 1.1497364117 -0.4132229994
H -11.0278736141 1.6981352075 -1.4027977269
H -12.5234793472 -0.8767800454 0.1247147348
H -11.2623416643 -1.4680774085 1.2336768017
H -11.2721914914 -1.9875537696 -0.4728839359
H -8.9385881872 2.0242856139 -0.6636406757
H -6.5107081440 1.8624892586 -0.6531673602
H -4.6046928575 -2.3942428627 -0.6604160003
H -1.9972767255 -1.8846619478 -0.4499197277
H -1.6600689296 2.8629205367 0.7139487903
H 1.8472862296 -1.9584747019 -0.4276564171
H 4.4550780189 -2.4374329713 -0.5880636002
H 6.6346468561 -2.3671884592 0.0561542696
H 9.0558954280 -2.1916653953 0.0214840059
H 10.7821551984 1.9591465429 -1.0158354374
H 12.1925646628 1.2758405299 -0.1786795530
H 10.8765404187 2.0145521620 0.7648131556
H 11.1557968138 -1.7460365230 -0.8771028480
H 12.3567673136 -0.8077005820 0.0421407619
H 11.0839192515 -1.6986578808 0.9047773148
H 8.7163803551 2.1278545041 -0.0880064171
H 6.2993317302 1.9228679983 -0.0899959679
H -6.7648312726 -2.2867112711 0.4537539592
H -9.1973279482 -2.1657720680 0.4122603926
58
step=22 E=-2401.205751645798 Eh
C -11.3172483897 1.2766259785 -0.3756343835
N -10.6737803371 0.0057469997 -0.1503278020
C -11.4625732766 -1.1506321277 0.1968764621
C -9.2971260450 -0.0714467461 -0.1293806742
C -8.4926697771 1.0578815060 -0.3947864514
C -7.1075747175 0.9659013737 -0.3812934034
C -6.4470974021 -0.2365210570 -0.0986051364
C -4.9771018367 -0.3363672156 -0.0947402736
C -4.1901536542 -1.4288259166 -0.3631134885
C -2.7959314305 -1.1571147447 -0.2611185399
C -2.5319709330 0.1421122480 0.0831358396
C -1.2112654031 0.7541271197 0.2519171012
C -0.9582982266 2.0640168372 0.5662290684
S 0.7330068793 2.3328905730 0.6493000776
C 0.9958417892 0.6614203146 0.2528041107
C 2.3337398075 0.0919917066 0.1179116672
C 2.6238279818 -1.2072235079 -0.2122664987
C 4.0204672616 -1.4513518160 -0.2937250819
C 4.7862694610 -0.3405432046 -0.0254892111
C 6.2538260733 -0.2175953436 -0.0209046335
C 7.0729550279 -1.3527971019 0.0413920111
C 8.4571315723 -1.2616619584 0.0252878767
C 9.1035967271 -0.0076209850 -0.0451415987
N 10.4765882705 0.0935623662 -0.0587797026
C 11.1030024673 1.3915733837 -0.1285380797
C 11.2863042881 -1.0989491867 -0.0017890012
C 8.2800121820 1.1378233847 -0.0984776198
C 6.8969821152 1.0251623880 -0.0890301559
S 3.7768628957 1.0141800241 0.3427337310
N -0.0937083969 -0.0238831471 0.0788369641
S -3.9951456349 1.0344158356 0.2956750546
C -7.2450176452 -1.3545804910 0.1761086881
C -8.6310829900 -1.2825542457 0.1610207214
H -11.0575071718 2.0247855647 0.3967523143
H -12.4062182779 1.1408674124 -0.3586355263
H -11.0502612252 1.7045859350 -1.3582064239
H -12.5284554832 -0.9011195524 0.1178144835
H -11.2720349225 -1.4979460269 1.2298472118
H -11.2684613788 -1.9999859513 -0.4819030155
H -8.9489219177 2.0218279065 -0.6231384837
H -6.5201854358 1.8612217474 -0.6088758003
H -4.6030261481 -2.3978569701 -0.6502500282
H -1.9973894572 -1.8783860041 -0.4394519765
H -1.6755580655 2.8638554423 0.7471060434
H 1.8402789512 -1.9434158074 -0.3968621392
H 4.4498662395 -2.4166477002 -0.5670080104
H 6.6168990328 -2.3438018273 0.1178101430
H 9.0410143693 -2.1815068817 0.0764448513
H 10.8168584776 1.9439560108 -1.0418601931
H 12.1935793484 1.2699586486 -0.1422281164
H 10.8464274935 2.0253996611 0.7399684575
H 11.1106280446 -1.7652149150 -0.8661287698
H 12.3473045485 -0.8188301492 -0.0060641268
H 11.0986492038 -1.6851667061 0.9160604304
H 8.7205702900 2.1338006385 -0.1554737399
H 6.3009350184 1.9414425990 -0.1487396459
H -6.7680189990 -2.3066418441 0.4267075877
H -9.2007989093 -2.1838511433 0.3900256627
58
step=23 E=-2401.205792499885 Eh
C -11.3510923441 1.2367253575 -0.2809011328
N -10.6887717039 -0.0274716564 -0.0731836875
C -11.4548274859 -1.1956431717 0.2856000344
C -9.3112115984 -0.0881531758 -0.0866588209
C -8.5270760531 1.0513328883 -0.3699136250
C -7.1406266587 0.9824548318 -0.3865527775
C -6.4591492158 -0.2110873004 -0.1166346879
C -4.9880367401 -0.2902980498 -0.1348695560
C -4.1929313708 -1.3677944818 -0.4373424453
C -2.8008339024 -1.0847449798 -0.3392068010
C -2.5472454683 0.2083700137 0.0355771113
C -1.2301333366 0.8236115473 0.2220317022
C -0.9758598545 2.1188300847 0.5910947678
S 0.7148805870 2.3873302694 0.6922603686
C 0.9793578517 0.7347138692 0.2253236115
C 2.3171202727 0.1677445140 0.0776595138
C 2.6015634008 -1.1262275447 -0.2773548306
C 3.9970749547 -1.3747368177 -0.3600646249
C 4.7672133807 -0.2736501099 -0.0648165201
C 6.2350889003 -0.1615626665 -0.0419724147
C 7.0355863251 -1.3041858026 0.0900165424
C 8.4205461595 -1.2280146109 0.0947101040
C 9.0839235201 0.0137756417 -0.0191871036
N 10.4582261831 0.0935706403 -0.0048294851
C 11.1015883844 1.3825472548 -0.0845329320
C 11.2471822543 -1.1101527440 0.0930501761
C 8.2768846353 1.1657506970 -0.1444053626
C 6.8924733715 1.0706516768 -0.1577690485
S 3.7637723110 1.0790878476 0.3259751525
N -0.1098430257 0.0571801271 0.0182746017
S -4.0174369313 1.0808230638 0.2823758603
C -7.2364069390 -1.3402377723 0.1722071488
C -8.6234712670 -1.2908724276 0.1872774077
H -11.0727605325 1.9886779619 0.4811189078
H -12.4375470101 1.0913638338 -0.2270114485
H -11.1206628703 1.6653387328 -1.2725450600
H -12.5253124091 -0.9622591143 0.2219813473
H -11.2440017103 -1.5406106540 1.3154724269
H -11.2583285067 -2.0417298175 -0.3964235658
H -9.0025632389 2.0079851630 -0.5892254156
H -6.5708370836 1.8861278330 -0.6259035345
H -4.5990188000 -2.3336723603 -0.7440670888
H -1.9965369072 -1.7937829450 -0.5393658363
H -1.6938983071 2.9097395774 0.8043986232
H 1.8147624190 -1.8542665519 -0.4794049573
H 4.4241050276 -2.3345749381 -0.6554481220
H 6.5643180926 -2.2839164457 0.2090461848
H 8.9920983795 -2.1505991908 0.2015998530
H 10.8697003323 1.9096261694 -1.0280607404
H 12.1896383062 1.2498669115 -0.0359166846
H 10.8066704770 2.0448272939 0.7495851795
H 11.0553984810 -1.8018161981 -0.7473507576
H 12.3128359186 -0.8496867965 0.0747954431
H 11.0529325443 -1.6618559388 1.0310794789
H 8.7318733571 2.1516889681 -0.2442747777
H 6.3074349743 1.9885840803 -0.2757094102
H -6.7399573585 -2.2848940050 0.4126915831
H -9.1749060471 -2.2001593957 0.4292347400
58
step=24 E=-2401.205819067793 Eh
C -11.3596881685 1.2625016574 -0.2573251723
N -10.6975901973 -0.0024878703 -0.0537913103
C -11.4643808689 -1.1690062846 0.3073894426
C -9.3202575929 -0.0668572142 -0.0747651729
C -8.5336144446 1.0685233889 -0.3671982677
C -7.1478258356 0.9895378895 -0.3899056188
C -6.4687011386 -0.2047211277 -0.1177146369
C -4.9983396628 -0.2902450816 -0.1394837608
C -4.2062528518 -1.3669480840 -0.4528642869
C -2.8135532492 -1.0878597674 -0.3529550632
C -2.5558663345 0.2011446723 0.0331418236
C -1.2385086113 0.8131011511 0.2277209525
C -0.9877211019 2.1037422966 0.6144398878
S 0.7033632109 2.3703335910 0.7178560830
C 0.9711706014 0.7243175840 0.2304214087
C 2.3082078318 0.1576767248 0.0731852986
C 2.5983233366 -1.1304013853 -0.2987782539
C 3.9937928222 -1.3779276659 -0.3850939366
C 4.7600079643 -0.2787049582 -0.0733428793
C 6.2270767184 -0.1601801853 -0.0472700918
C 7.0370115299 -1.2934897657 0.1064651316
C 8.4213271229 -1.2083126387 0.1174450557
C 9.0763727863 0.0367493182 -0.0133495667
N 10.4500361038 0.1326790043 0.0074422814
C 11.0805010830 1.4268760456 -0.0804719630
C 11.2531697050 -1.0598870146 0.1227179335
C 8.2597103352 1.1793551961 -0.1623463900
C 6.8761183894 1.0741335905 -0.1813814168
S 3.7535038676 1.0660262917 0.3367779845
N -0.1178091545 0.0490934199 0.0160662742
S -4.0237632361 1.0730863262 0.2933450680
C -7.2487536206 -1.3291781951 0.1802815109
C -8.6354263519 -1.2710392092 0.2003262789
H -11.0722424804 2.0151708716 0.5005598554
H -12.4458816142 1.1195083535 -0.1921963519
H -11.1387770082 1.6891340238 -1.2520076494
H -12.5347629100 -0.9339798382 0.2474697340
H -11.2504725128 -1.5145791961 1.3364424002
H -11.2712496365 -2.0149745526 -0.3757283630
H -9.0052537756 2.0263041765 -0.5898794392
H -6.5747618990 1.8882266072 -0.6398085093
H -4.6149309706 -2.3278619435 -0.7716696166
H -2.0112060358 -1.7963238745 -0.5625729840
H -1.7067761919 2.8913729696 0.8365452601
H 1.8129936973 -1.8568506822 -0.5115982681
H 4.4232821921 -2.3320241283 -0.6954856221
H 6.5723309286 -2.2744732714 0.2401044838
H 8.9978879608 -2.1252594574 0.2439021194
H 10.8590620690 1.9379693672 -1.0353561638
H 12.1690928152 1.3065373820 -0.0111503191
H 10.7640974687 2.0969422492 0.7391803236
H 11.0660824956 -1.7675575176 -0.7051069127
H 12.3157694053 -0.7871750619 0.0947016605
H 11.0696182291 -1.5982082793 1.0706848039
H 8.7073837899 2.1670078671 -0.2776121078
H 6.2846931728 1.9852408242 -0.3191219711
H -6.7559131190 -2.2748802177 0.4242610607
H -9.1902937274 -2.1764493671 0.4490319966
58
step=25 E=-2401.205848140201 Eh
C -11.3587845426 1.2875277801 -0.2177537005
N -10.7001976261 0.0184712337 -0.0294816416
C -11.4704637081 -1.1498218486 0.3179171053
C -9.3233139347 -0.0506079096 -0.0571522186
C -8.5345092244 1.0850319560 -0.3423614596
C -7.1490820073 1.0033618203 -0.3730225965
C -6.4719982391 -0.1950547334 -0.1149924370
C -5.0022762851 -0.2855676128 -0.1437652610
C -4.2148417811 -1.3631032916 -0.4664317794
C -2.8209018754 -1.0888067289 -0.3714762787
C -2.5577652711 0.1976655033 0.0191323082
C -1.2381930477 0.8052482133 0.2105199222
C -0.9855341796 2.0940221937 0.6029138016
S 0.7060052324 2.3602630142 0.6952840419
C 0.9698293947 0.7162140180 0.1997933284
C 2.3077003607 0.1527690917 0.0393403579
C 2.5999251929 -1.1334998895 -0.3379468608
C 3.9967636904 -1.3768888527 -0.4165595584
C 4.7602268905 -0.2779188279 -0.0979841213
C 6.2267872777 -0.1562221831 -0.0628284456
C 7.0386993712 -1.2844421756 0.1145030163
C 8.4227489765 -1.1948881355 0.1428805733
C 9.0749033979 0.0508318333 0.0001825448
N 10.4479652296 0.1537163778 0.0351922403
C 11.0755704690 1.4474811005 -0.0754814479
C 11.2549334677 -1.0315766936 0.1905431618
C 8.2569150699 1.1885762314 -0.1768226964
C 6.8741988354 1.0772314063 -0.2087987492
S 3.7499126806 1.0639497570 0.3104440689
N -0.1197166124 0.0412453149 -0.0123968042
S -4.0215262518 1.0735617472 0.2882260390
C -7.2546621518 -1.3192107151 0.1774762663
C -8.6411873608 -1.2595575939 0.2036168381
H -11.0676409869 2.0306848592 0.5480514079
H -12.4453189397 1.1471235599 -0.1526906512
H -11.1385993118 1.7248283392 -1.2079381680
H -12.5401145631 -0.9097381579 0.2651803248
H -11.2544414175 -1.5104430097 1.3412956883
H -11.2832481958 -1.9870642184 -0.3775710153
H -9.0045419750 2.0461583411 -0.5535327910
H -6.5754455614 1.9025928396 -0.6193350647
H -4.6278033873 -2.3205149876 -0.7903782017
H -2.0216424658 -1.7979974561 -0.5903415824
H -1.7030140309 2.8805753934 0.8338625344
H 1.8168366919 -1.8609426766 -0.5560034340
H 4.4302935067 -2.3294914383 -0.7261022654
H 6.5750893087 -2.2649291165 0.2558219992
H 9.0001585445 -2.1080344478 0.2917673102
H 10.8631617980 1.9348686444 -1.0446967635
H 12.1637382233 1.3323880053 0.0087223423
H 10.7480744548 2.1358991366 0.7243903860
H 11.0833741695 -1.7602070085 -0.6223300537
H 12.3164658568 -0.7537240620 0.1703127511
H 11.0611634045 -1.5476259776 1.1487659349
H 8.7021647639 2.1762462303 -0.3014715162
H 6.2813716150 1.9839819141 -0.3667609549
H -6.7632140166 -2.2680064172 0.4120362370
H -9.1970681073 -2.1660228891 0.4461912828
58
step=26 E=-2401.205769199604 Eh
C -11.3611715384 1.3396250682 -0.0804681723
N -10.7063660834 0.0605576039 0.0394502786
C -11.4769813706 -1.1266633534 0.3145098667
C -9.3303184616 -0.0095104914 -0.0042874471
C -8.5426707781 1.1374958081 -0.2425224957
C -7.1577561193 1.0587980586 -0.2917278711
C -6.4802842674 -0.1509671711 -0.0957568838
C -5.0112993800 -0.2374165105 -0.1424646214
C -4.2266780859 -1.3019614997 -0.5126570968
C -2.8318201075 -1.0310767503 -0.4238287985
C -2.5672303919 0.2422588384 0.0066084521
C -1.2448151201 0.8419398449 0.1995075205
C -0.9882381115 2.1176045366 0.6313187853
S 0.7038381019 2.3848467437 0.6985254144
C 0.9614644430 0.7578554349 0.1468329681
C 2.2988207684 0.1995516732 -0.0343663346
C 2.5923991500 -1.0804122325 -0.4326501268
C 3.9900746444 -1.3252530070 -0.5024593028
C 4.7496299027 -0.2302536956 -0.1634980864
C 6.2157047014 -0.1128972446 -0.1074783206
C 7.0174210168 -1.2251649034 0.1804850984
C 8.4004582147 -1.1338510578 0.2545339727
C 9.0593373275 0.0969653757 0.0326297230
N 10.4308624836 0.2024588770 0.1073257423
C 11.0665982050 1.4793473152 -0.1068323087
C 11.2279631020 -0.9595854723 0.4155184469
C 8.2530153934 1.2173358582 -0.2670507263
C 6.8719477362 1.1034345377 -0.3318981925
S 3.7389784900 1.1081129436 0.2544324790
N -0.1301017422 0.0875231464 -0.0702514417
S -4.0274176967 1.1100739436 0.3177962443
C -7.2607468873 -1.2873689346 0.1539792208
C -8.6470858112 -1.2299392550 0.1930196168
H -11.0630351803 2.0406896540 0.7213118102
H -12.4478501514 1.1999476180 -0.0177203829
H -11.1450224463 1.8275289448 -1.0476772716
H -12.5464878504 -0.8828842159 0.2801262479
H -11.2590735474 -1.5512592352 1.3124855260
H -11.2930251202 -1.9188855299 -0.4328500550
H -9.0138119339 2.1078054489 -0.4023194100
H -6.5867617579 1.9682117100 -0.5038309963
H -4.6429842166 -2.2463010214 -0.8692444275
H -2.0344427764 -1.7298602816 -0.6802058574
H -1.7021750105 2.8943406159 0.9027953854
H 1.8100436868 -1.8049254795 -0.6630776152
H 4.4282246264 -2.2740669290 -0.8179622813
H 6.5438324990 -2.1905505382 0.3817532002
H 8.9689088690 -2.0311809944 0.5023517048
H 10.8998012028 1.8630050097 -1.1301821829
H 12.1493259732 1.3761644257 0.0389439215
H 10.7050188754 2.2468833289 0.6010430439
H 11.0813526977 -1.7712012651 -0.3197639737
H 12.2904609465 -0.6852159473 0.3989011070
H 11.0026906286 -1.3703482604 1.4168941806
H 8.7044563457 2.1917390064 -0.4564693074
H 6.2862327539 1.9936187962 -0.5820142205
H -6.7675071252 -2.2454677473 0.3426239755
H -9.2011878420 -2.1467869134 0.3974153110
58
step=27 E=-2401.205854844418 Eh
C -11.3542631435 1.3176137125 -0.1442021357
N -10.6998797971 0.0406420747 -0.0009188164
C -11.4720925542 -1.1405987819 0.2950700776
C -9.3233481374 -0.0295154822 -0.0318454878
C -8.5338648926 1.1142848001 -0.2794539351
C -7.1485539754 1.0348965999 -0.3160842696
C -6.4726032771 -0.1721936216 -0.0988190024
C -5.0031208149 -0.2596850457 -0.1344341495
C -4.2163410688 -1.3317416669 -0.4770398816
C -2.8219823100 -1.0586141879 -0.3862680819
C -2.5593172340 0.2231571837 0.0195758365
C -1.2380283435 0.8276818047 0.2063867111
C -0.9825165116 2.1130298625 0.6086858796
S 0.7094138202 2.3804026420 0.6819118000
C 0.9692315365 0.7407779658 0.1695623760
C 2.3063585434 0.1779887419 0.0009912604
C 2.5982285019 -1.1077811813 -0.3787274471
C 3.9953138937 -1.3541846718 -0.4510409991
C 4.7572987067 -0.2552919780 -0.1298274780
C 6.2238906320 -0.1373259148 -0.0854500365
C 7.0304187096 -1.2590689132 0.1477235477
C 8.4143082809 -1.1694103167 0.1994934541
C 9.0700395693 0.0689956215 0.0153963874
N 10.4426089115 0.1708107746 0.0695331801
C 11.0757031545 1.4555040692 -0.1022025885
C 11.2435467315 -1.0045712304 0.3098434935
C 8.2583685181 1.1997436402 -0.2240656314
C 6.8763027733 1.0878114329 -0.2714327662
S 3.7481702486 1.0888771421 0.2739253004
N -0.1218827568 0.0666664088 -0.0376633834
S -4.0215386935 1.0963517464 0.3054474923
C -7.2551009985 -1.3053197764 0.1591079287
C -8.6416223777 -1.2469019598 0.1878125252
H -11.0631244643 2.0306526774 0.6496349675
H -12.4413577879 1.1781103204 -0.0881742945
H -11.1301657776 1.7911501564 -1.1166884259
H -12.5413438835 -0.8972125808 0.2509303126
H -11.2586568189 -1.5448044790 1.3024835275
H -11.2849788470 -1.9478855604 -0.4351263034
H -9.0037433836 2.0823025540 -0.4562954041
H -6.5757243891 1.9418041084 -0.5342020464
H -4.6303097662 -2.2843422241 -0.8136729556
H -2.0232881216 -1.7632158139 -0.6216937358
H -1.6976206744 2.8965896251 0.8564689147
H 1.8148738486 -1.8347601795 -0.5975616869
H 4.4303462430 -2.3078602598 -0.7556456167
H 6.5616077521 -2.2324521914 0.3188526258
H 8.9874768521 -2.0756429222 0.3991421859
H 10.8838613287 1.8859418219 -1.1022177730
H 12.1615802136 1.3443822270 0.0106104280
H 10.7341913538 2.1901914153 0.6492245130
H 11.0858811451 -1.7799747836 -0.4614516934
H 12.3058817218 -0.7297882930 0.2921196044
H 11.0315557241 -1.4628069145 1.2933058200
H 8.7068141660 2.1812011712 -0.3814807505
H 6.2871120602 1.9875054744 -0.4754684746
H -6.7637027009 -2.2612830986 0.3626759416
H -9.1973549159 -2.1609124469 0.4003386036
58
step=28 E=-2401.205858661810 Eh
C -11.3569098672 1.3487181168 -0.1133512746
N -10.7054499634 0.0683653080 0.0123672672
C -11.4837208344 -1.1132978768 0.2907586806
C -9.3291555272 -0.0064514475 -0.0234047174
C -8.5368059155 1.1377914329 -0.2601970406
C -7.1517503398 1.0553825788 -0.3012854811
C -6.4780427895 -0.1558456056 -0.0998559436
C -5.0086012450 -0.2484803708 -0.1383271020
C -4.2250928376 -1.3194563405 -0.4913191390
C -2.8298037550 -1.0502987246 -0.3995771452
C -2.5618118021 0.2262896314 0.0188801209
C -1.2395851726 0.8277181639 0.2111396653
C -0.9828622163 2.1100275730 0.6218998425
S 0.7089914556 2.3752906716 0.7026390445
C 0.9677941220 0.7394724874 0.1774520251
C 2.3056266896 0.1791261050 0.0052412635
C 2.5964118909 -1.1049388324 -0.3805319601
C 3.9942475925 -1.3472245607 -0.4572686764
C 4.7573813929 -0.2509537915 -0.1301877028
C 6.2237444174 -0.1275267928 -0.0851618316
C 7.0340500613 -1.2399070307 0.1783617111
C 8.4174076945 -1.1411753157 0.2304515700
C 9.0686834249 0.0949138811 0.0200049290
N 10.4405564745 0.2039311217 0.0765217913
C 11.0691855573 1.4870463837 -0.1223906168
C 11.2451776885 -0.9619496837 0.3491532800
C 8.2521258162 1.2154948518 -0.2479181408
C 6.8706152730 1.0964468539 -0.2977489393
S 3.7473657044 1.0880370981 0.2865522458
N -0.1234899808 0.0674028691 -0.0355122524
S -4.0218674813 1.0994577524 0.3152936924
C -7.2641037347 -1.2893535430 0.1455255721
C -8.6504592074 -1.2283851036 0.1799138792
H -11.0609527315 2.0511996373 0.6880379316
H -12.4441911688 1.2113237607 -0.0548808900
H -11.1349996779 1.8333746143 -1.0809230392
H -12.5516269868 -0.8629092655 0.2526748406
H -11.2712117267 -1.5350163388 1.2911593197
H -11.3024917120 -1.9097190276 -0.4527772532
H -9.0042674301 2.1092827665 -0.4242778092
H -6.5773030321 1.9636631446 -0.5095133291
H -4.6418222807 -2.2682023951 -0.8353293517
H -2.0334024112 -1.7552586294 -0.6415617842
H -1.6976597464 2.8927591789 0.8733004948
H 1.8134240727 -1.8313379585 -0.6028439565
H 4.4303567816 -2.2978720480 -0.7697094500
H 6.5687339117 -2.2109285662 0.3716389170
H 8.9948799455 -2.0391788264 0.4534518644
H 10.8802099259 1.8935932161 -1.1329194590
H 12.1549807886 1.3832725129 -0.0020484187
H 10.7213867277 2.2375778720 0.6102308573
H 11.0939561793 -1.7564508296 -0.4036939857
H 12.3065339912 -0.6836901598 0.3289793816
H 11.0305535513 -1.3969613593 1.3426586307
H 8.6966604792 2.1949999114 -0.4266739847
H 6.2771620489 1.9877516681 -0.5253815021
H -6.7749633758 -2.2492189223 0.3357317052
H -9.2078022380 -2.1434678036 0.3836756984
58
step=29 E=-2401.205881390471 Eh
C -11.3583423926 1.3449444141 -0.1232846602
N -10.7052058406 0.0656414202 0.0058684343
C -11.4816650366 -1.1169425609 0.2859747647
C -9.3286779549 -0.0072486261 -0.0281318971
C -8.5371791122 1.1377027589 -0.2649359949
C -7.1520249095 1.0547390024 -0.3031200519
C -6.4774343851 -0.1558101810 -0.0998912561
C -5.0074829745 -0.2457918784 -0.1362838629
C -4.2194464659 -1.3148044575 -0.4849766234
C -2.8250152955 -1.0413925884 -0.3917397239
C -2.5615785813 0.2366974261 0.0249943624
C -1.2414630305 0.8426852304 0.2190790761
C -0.9868695826 2.1261585388 0.6271626928
S 0.7044549756 2.3938209729 0.7134922168
C 0.9669946655 0.7572438788 0.1922332386
C 2.3051894315 0.1970525860 0.0212849334
C 2.5956106609 -1.0869649369 -0.3645850367
C 3.9928145238 -1.3313966355 -0.4447809390
C 4.7559351325 -0.2350453626 -0.1179294822
C 6.2227915406 -0.1146243258 -0.0766632665
C 7.0284643266 -1.2313915638 0.1820272263
C 8.4123291172 -1.1394969135 0.2271035477
C 9.0682452973 0.0940642819 0.0175436651
N 10.4406740215 0.1964361124 0.0678316769
C 11.0733541243 1.4783004627 -0.1259562417
C 11.2409442775 -0.9749956857 0.3284841410
C 8.2552990562 1.2190120395 -0.2430132029
C 6.8728325464 1.1080199184 -0.2887974835
S 3.7478232835 1.1047301975 0.3016639732
N -0.1231517636 0.0839614534 -0.0223097539
S -4.0252002316 1.1055252204 0.3171199538
C -7.2626151414 -1.2901043014 0.1444361457
C -8.6489607840 -1.2282914941 0.1771076582
H -11.0638729069 2.0497955652 0.6765709442
H -12.4454772469 1.2062332756 -0.0649217070
H -11.1362528713 1.8274392092 -1.0919492032
H -12.5499245980 -0.8682619525 0.2466288977
H -11.2693536511 -1.5363229463 1.2874284437
H -11.2984683610 -1.9145849117 -0.4557617138
H -9.0047163328 2.1089320106 -0.4307552458
H -6.5774413776 1.9632535000 -0.5104330636
H -4.6322409995 -2.2661110012 -0.8264386586
H -2.0260911061 -1.7448285271 -0.6298393935
H -1.7034564243 2.9085517255 0.8745483184
H 1.8117434524 -1.8124587878 -0.5865784859
H 4.4278363293 -2.2819362785 -0.7591196462
H 6.5590785732 -2.2005177680 0.3748890194
H 8.9871019072 -2.0405679754 0.4443568192
H 10.8797865616 1.8932645073 -1.1321618969
H 12.1594309394 1.3690890851 -0.0131716697
H 10.7331669884 2.2245985295 0.6145250538
H 11.0823148221 -1.7627514206 -0.4299365719
H 12.3035372181 -0.7018367757 0.3059630624
H 11.0281049893 -1.4164426937 1.3195508678
H 8.7044370751 2.1966450906 -0.4207536373
H 6.2822137398 2.0024491804 -0.5118753576
H -6.7737459533 -2.2499338319 0.3354591306
H -9.2063397949 -2.1434153361 0.3808820335
58
step=30 E=-2401.205888687691 Eh
C -11.3578258026 1.3532462954 -0.1377294391
N -10.7044340742 0.0739320564 -0.0095595537
C -11.4813698847 -1.1101501083 0.2628889138
C -9.3276715190 0.0021602993 -0.0370373316
C -8.5354664792 1.1486124405 -0.2639670547
C -7.1501190203 1.0662010122 -0.2950150076
C -6.4761400817 -0.1452312797 -0.0946990905
C -5.0059489797 -0.2338187638 -0.1247650049
C -4.2173752736 -1.3041147628 -0.4682516079
C -2.8235412591 -1.0294622846 -0.3706732387
C -2.5614198797 0.2495135867 0.0442550513
C -1.2416467422 0.8559634005 0.2392391013
C -0.9861084528 2.1413179943 0.6406429645
S 0.7055175074 2.4065683399 0.7304053392
C 0.9673801892 0.7665931598 0.2191969495
C 2.3043369526 0.2027752385 0.0500661757
C 2.5936803407 -1.0822144912 -0.3333133833
C 3.9903142498 -1.3283867187 -0.4173418193
C 4.7552164617 -0.2319342580 -0.0951693567
C 6.2223456884 -0.1110011788 -0.0604013255
C 7.0310375772 -1.2261954391 0.1950492880
C 8.4151175201 -1.1329713727 0.2278119305
C 9.0680515438 0.1011083841 0.0118681727
N 10.4407696750 0.2033732537 0.0504637268
C 11.0694334765 1.4869288234 -0.1448694172
C 11.2442446984 -0.9683333353 0.3000374299
C 8.2527246440 1.2258352409 -0.2425694212
C 6.8702244990 1.1118194649 -0.2782640417
S 3.7488829314 1.1094155191 0.3240518894
N -0.1235552407 0.0944492521 0.0055932868
S -4.0259395027 1.1186313473 0.3307868464
C -7.2618263790 -1.2814176319 0.1388108269
C -8.6482825921 -1.2194939490 0.1652196800
H -11.0665530615 2.0561199479 0.6649961598
H -12.4450545794 1.2138099495 -0.0833289799
H -11.1324186599 1.8383192912 -1.1043445611
H -12.5495513408 -0.8617750408 0.2201591023
H -11.2729986287 -1.5330489098 1.2636710388
H -11.2946797646 -1.9049445010 -0.4810082176
H -9.0024741608 2.1204983715 -0.4273022285
H -6.5747607821 1.9761925025 -0.4935930239
H -4.6286215222 -2.2568806994 -0.8074453045
H -2.0236355899 -1.7335270259 -0.6034538895
H -1.7022024740 2.9261770744 0.8814355305
H 1.8086909351 -1.8072453198 -0.5526369953
H 4.4235729674 -2.2796885784 -0.7316840061
H 6.5639776369 -2.1953629674 0.3929437548
H 8.9929396121 -2.0331367657 0.4405942938
H 10.8641962966 1.9058638181 -1.1470472303
H 12.1568158512 1.3786833547 -0.0446319543
H 10.7363078213 2.2295144137 0.6025456009
H 11.0808771139 -1.7528246837 -0.4608134960
H 12.3063486185 -0.6939887951 0.2711476398
H 11.0390060866 -1.4144451117 1.2905499992
H 8.6996195337 2.2037718496 -0.4245289172
H 6.2765482435 2.0050345164 -0.4978102461
H -6.7739231371 -2.2424618343 0.3260579043
H -9.2064328584 -2.1358325754 0.3612361119
58
step=31 E=-2401.205888958478 Eh
C -11.3601593237 1.3749084090 -0.1002114269
N -10.7061055979 0.0941772103 0.0092123726
C -11.4816221027 -1.0935228058 0.2695158902
C -9.3295659840 0.0227398237 -0.0274376014
C -8.5385453287 1.1723476277 -0.2419941318
C -7.1533755233 1.0905036090 -0.2804341512
C -6.4781396178 -0.1234752769 -0.1004905468
C -5.0079667904 -0.2107272494 -0.1361125215
C -4.2183793759 -1.2812171307 -0.4767670175
C -2.8244565328 -1.0060234900 -0.3825947949
C -2.5632593662 0.2749165547 0.0267823810
C -1.2436430989 0.8826549933 0.2186577122
C -0.9893969660 2.1715595794 0.6092949920
S 0.7020700036 2.4364744756 0.7040250619
C 0.9654455383 0.7915521946 0.2094049693
C 2.3029140981 0.2261579659 0.0491532186
C 2.5946461198 -1.0605251310 -0.3269257644
C 3.9915240914 -1.3069770884 -0.4060166577
C 4.7544585355 -0.2083825204 -0.0866950827
C 6.2216049069 -0.0875031429 -0.0488377735
C 7.0269099348 -1.2017716837 0.2208304716
C 8.4113452674 -1.1135673363 0.2529733994
C 9.0677534000 0.1165623980 0.0247007162
N 10.4407788500 0.2174057448 0.0628506953
C 11.0721837579 1.4981060310 -0.1416790065
C 11.2428044789 -0.9532419337 0.3222592108
C 8.2546032608 1.2403596990 -0.2417790626
C 6.8717536696 1.1318246377 -0.2792275430
S 3.7463936082 1.1347299403 0.3227018456
N -0.1249522594 0.1183827789 -0.0032817540
S -4.0280704808 1.1439408585 0.3130895037
C -7.2627673597 -1.2632770754 0.1185839652
C -8.6490423450 -1.2016602703 0.1529257883
H -11.0633008721 2.0684618234 0.7085222746
H -12.4469943834 1.2350154548 -0.0397131263
H -11.1411084440 1.8709626793 -1.0627127229
H -12.5499215512 -0.8439639156 0.2385973834
H -11.2661260001 -1.5312203620 1.2623596475
H -11.3009013437 -1.8772682821 -0.4874834149
H -9.0063486477 2.1463995888 -0.3892582685
H -6.5793824077 2.0037919938 -0.4675764314
H -4.6287441732 -2.2367094111 -0.8091069851
H -2.0244873051 -1.7111153266 -0.6120391575
H -1.7062492197 2.9587532731 0.8399555078
H 1.8106136390 -1.7866159073 -0.5460896274
H 4.4264761058 -2.2592166832 -0.7151835829
H 6.5560940520 -2.1669824198 0.4289502808
H 8.9863538609 -2.0132945551 0.4749088858
H 10.8638954703 1.9119953361 -1.1452316025
H 12.1597056563 1.3871155603 -0.0457758615
H 10.7442280749 2.2457093495 0.6030989647
H 11.0831774950 -1.7420250216 -0.4350404387
H 12.3050525939 -0.6789990806 0.2972968566
H 11.0328191898 -1.3938661709 1.3141151763
H 8.7047986477 2.2149502359 -0.4330455793
H 6.2807251279 2.0241923218 -0.5091360970
H -6.7747090747 -2.2274772653 0.2882100719
H -9.2061453901 -2.1209221520 0.3379917320
58
step=32 E=-2401.205892578615 Eh
C -11.3613785733 1.3820382361 -0.0855981176
N -10.7068309659 0.1012618605 0.0202447749
C -11.4803802353 -1.0873204258 0.2822470187
C -9.3304817418 0.0301987667 -0.0215319605
C -8.5400932666 1.1799796596 -0.2374835666
C -7.1550824767 1.0977578809 -0.2805706313
C -6.4791673826 -0.1163686783 -0.1044541954
C -5.0092148436 -0.2042920689 -0.1443429694
C -4.2204587166 -1.2753204824 -0.4853120721
C -2.8263246678 -1.0002352333 -0.3939770428
C -2.5634928556 0.2809693694 0.0133608380
C -1.2438929835 0.8891604126 0.2037404490
C -0.9902128406 2.1794918180 0.5901148595
S 0.7010039156 2.4451274707 0.6863783611
C 0.9647634945 0.7986681040 0.1973641797
C 2.3029432357 0.2338789911 0.0416906241
C 2.5945069713 -1.0535704253 -0.3319222205
C 3.9915751333 -1.2999016356 -0.4072636429
C 4.7539192219 -0.2008926896 -0.0876471297
C 6.2209701243 -0.0813459552 -0.0468039589
C 7.0253596791 -1.1960805093 0.2238055839
C 8.4096606926 -1.1064770937 0.2585364388
C 9.0673260017 0.1232846722 0.0316448144
N 10.4403341537 0.2236540861 0.0726198053
C 11.0730020734 1.5039659848 -0.1306500730
C 11.2412184589 -0.9474156688 0.3337201341
C 8.2553710595 1.2474852437 -0.2362856165
C 6.8727125951 1.1373659043 -0.2757664274
S 3.7455244475 1.1430981345 0.3176984364
N -0.1250130759 0.1241602919 -0.0145190415
S -4.0276840513 1.1506900879 0.3003411384
C -7.2633447844 -1.2562632694 0.1157981154
C -8.6494635072 -1.1945606550 0.1547028769
H -11.0610656336 2.0750753902 0.7223121066
H -12.4479511000 1.2421470905 -0.0204292743
H -11.1465278847 1.8788068824 -1.0486932996
H -12.5490192271 -0.8385758912 0.2565239849
H -11.2598865368 -1.5261366090 1.2735042291
H -11.3025990561 -1.8700063820 -0.4765758587
H -9.0082127089 2.1542566705 -0.3823411087
H -6.5817552086 2.0112500952 -0.4686861141
H -4.6315502727 -2.2311850971 -0.8157854008
H -2.0270782032 -1.7059739621 -0.6239510510
H -1.7074912415 2.9674237135 0.8170044798
H 1.8107674861 -1.7798194579 -0.5518143699
H 4.4271855559 -2.2526378196 -0.7140698111
H 6.5545125205 -2.1614666549 0.4312640179
H 8.9842139001 -2.0062994459 0.4813557127
H 10.8663995159 1.9182412698 -1.1344035645
H 12.1603568106 1.3921310849 -0.0335965906
H 10.7446364648 2.2517070432 0.6138717627
H 11.0833877027 -1.7359608547 -0.4242309557
H 12.3036517070 -0.6734653385 0.3120746548
H 11.0283501882 -1.3883115245 1.3248393691
H 8.7056268677 2.2222968408 -0.4264585837
H 6.2821973099 2.0298887821 -0.5064188688
H -6.7750083898 -2.2208011734 0.2827339952
H -9.2060257822 -2.1140659883 0.3402301365
58
step=33 E=-2401.205894564495 Eh
C -11.3635172544 1.3895261580 -0.0735042111
N -10.7074844176 0.1094872554 0.0312005526
C -11.4801220585 -1.0789068974 0.2965934336
C -9.3312616490 0.0391360058 -0.0146352856
C -8.5424431525 1.1894591913 -0.2334610547
C -7.1574370064 1.1093737724 -0.2806206953
C -6.4798747102 -0.1039739849 -0.1061649270
C -5.0101632001 -0.1917423286 -0.1498561839
C -4.2230160614 -1.2638696559 -0.4913454478
C -2.8286515930 -0.9889827953 -0.4035885712
C -2.5639640543 0.2925376425 0.0014504068
C -1.2438817496 0.9003018932 0.1890758264
C -0.9897719331 2.1922186492 0.5699518294
S 0.7014490723 2.4576202509 0.6654094307
C 0.9642303954 0.8091840940 0.1830206752
C 2.3025852910 0.2439099176 0.0316052141
C 2.5936682280 -1.0442968507 -0.3396840228
C 3.9909419986 -1.2905628865 -0.4106866475
C 4.7535456745 -0.1917034899 -0.0908269227
C 6.2202996857 -0.0725704177 -0.0462517017
C 7.0255976106 -1.1871924450 0.2228712351
C 8.4098191861 -1.0983908575 0.2627179456
C 9.0664457659 0.1326233957 0.0402250934
N 10.4392395952 0.2328958955 0.0855694031
C 11.0718544427 1.5138051812 -0.1143867671
C 11.2392057201 -0.9385729040 0.3474794825
C 8.2546806418 1.2568759189 -0.2274667706
C 6.8721455937 1.1467914858 -0.2706264646
S 3.7446619388 1.1531680951 0.3098838595
N -0.1255592394 0.1337357175 -0.0262956051
S -4.0269221077 1.1636707086 0.2896928220
C -7.2627898675 -1.2442205440 0.1171059117
C -8.6488636926 -1.1851810604 0.1598707927
H -11.0605697893 2.0837013860 0.7324441520
H -12.4497249115 1.2488629989 -0.0037919870
H -11.1529967422 1.8854944363 -1.0379902300
H -12.5488863165 -0.8302072405 0.2748712057
H -11.2555056179 -1.5171112893 1.2871906240
H -11.3055170433 -1.8621597569 -0.4624104015
H -9.0121173660 2.1630709691 -0.3778084708
H -6.5859715868 2.0234936705 -0.4712180310
H -4.6353755449 -2.2197567692 -0.8203702676
H -2.0303346634 -1.6953531988 -0.6349121872
H -1.7067742064 2.9814961095 0.7930991056
H 1.8101143515 -1.7706137302 -0.5602161087
H 4.4268018154 -2.2440755278 -0.7147537545
H 6.5549003228 -2.1533539809 0.4270479018
H 8.9838081348 -1.9987421205 0.4851978630
H 10.8675798564 1.9293599458 -1.1181227529
H 12.1590468751 1.4023777488 -0.0151395053
H 10.7413216747 2.2604893403 0.6303077027
H 11.0837576550 -1.7258591411 -0.4122846176
H 12.3017330336 -0.6645875011 0.3302846095
H 11.0229286949 -1.3811149171 1.3371543396
H 8.7049840161 2.2324211815 -0.4138410418
H 6.2823239251 2.0400508964 -0.5004047414
H -6.7727985377 -2.2080202220 0.2834437781
H -9.2036226083 -2.1054374138 0.3469655083
58
step=34 E=-2401.205898251708 Eh
C -11.3639757237 1.4003524424 -0.0696462729
N -10.7083832714 0.1201432575 0.0354698518
C -11.4806093467 -1.0683166400 0.3018382263
C -9.3322191228 0.0497350087 -0.0110493338
C -8.5433839150 1.1998599510 -0.2305948044
C -7.1584113050 1.1197016621 -0.2784266622
C -6.4809177277 -0.0936619188 -0.1040818257
C -5.0113077699 -0.1812281514 -0.1485929675
C -4.2246807895 -1.2539451907 -0.4896058715
C -2.8301894582 -0.9793543671 -0.4037417003
C -2.5653907412 0.3027818998 -0.0006509765
C -1.2448703778 0.9101898697 0.1843773783
C -0.9902131674 2.2034219131 0.5603534150
S 0.7012244553 2.4683574458 0.6531409123
C 0.9632308779 0.8180169260 0.1770448966
C 2.3011723273 0.2513451338 0.0273381285
C 2.5931716630 -1.0371254142 -0.3423240816
C 3.9905742700 -1.2832729614 -0.4111353129
C 4.7530914791 -0.1841693923 -0.0919564795
C 6.2195317110 -0.0634614480 -0.0455999024
C 7.0244675400 -1.1787036536 0.2219384473
C 8.4084395023 -1.0879160662 0.2645091896
C 9.0652410764 0.1437073987 0.0455973414
N 10.4378856633 0.2451144266 0.0933582960
C 11.0713506304 1.5259474450 -0.1042484116
C 11.2375703036 -0.9263760732 0.3554456422
C 8.2533070974 1.2679448881 -0.2212432966
C 6.8709305313 1.1568065764 -0.2664846935
S 3.7430862081 1.1607440744 0.3057599737
N -0.1270576525 0.1422727633 -0.0289067222
S -4.0277080641 1.1746550065 0.2884911198
C -7.2637104882 -1.2338397683 0.1201302403
C -8.6497399046 -1.1745724137 0.1633091474
H -11.0596109249 2.0951549056 0.7352086927
H -12.4501407267 1.2603101916 0.0016774135
H -11.1545361446 1.8953255382 -1.0348873962
H -12.5494119003 -0.8197511099 0.2814749850
H -11.2545533448 -1.5064955768 1.2921037727
H -11.3069806415 -1.8516115553 -0.4573503029
H -9.0130446296 2.1734167352 -0.3752353714
H -6.5870387281 2.0336851277 -0.4698626779
H -4.6375803990 -2.2098528036 -0.8178621860
H -2.0322118287 -1.6859504452 -0.6355565521
H -1.7067628863 2.9938719002 0.7806804990
H 1.8100420426 -1.7639055220 -0.5627143881
H 4.4267161437 -2.2372331925 -0.7132814669
H 6.5543304015 -2.1457215163 0.4233784820
H 8.9825688577 -1.9883414321 0.4861416869
H 10.8688470028 1.9425860820 -1.1078854424
H 12.1583508039 1.4139841874 -0.0035184815
H 10.7399241316 2.2719793629 0.6406736712
H 11.0836971831 -1.7127682397 -0.4055395626
H 12.3000354789 -0.6520408261 0.3407598717
H 11.0194675973 -1.3700764791 1.3442034723
H 8.7030635562 2.2442543201 -0.4047704074
H 6.2809781266 2.0502568427 -0.4951466534
H -6.7736901378 -2.1975587969 0.2867669300
H -9.2044863135 -2.0947703339 0.3505737061
58
step=35 E=-2401.205900480488 Eh
C -11.3644349035 1.4149051052 -0.0659838083
N -10.7095367163 0.1344068630 0.0399279288
C -11.4820885056 -1.0535623261 0.3074450252
C -9.3334454532 0.0632494700 -0.0074627705
C -8.5440413339 1.2126823373 -0.2282850045
C -7.1591788920 1.1311137623 -0.2768686888
C -6.4824148553 -0.0825969065 -0.1020236533
C -5.0128231910 -0.1701950885 -0.1472826588
C -4.2258167401 -1.2429687071 -0.4872156879
C -2.8313781850 -0.9676415335 -0.4028201310
C -2.5669580597 0.3153898147 -0.0022409906
C -1.2467510213 0.9242552331 0.1804615173
C -0.9923085658 2.2190030325 0.5512723767
S 0.6990745488 2.4851861256 0.6417735211
C 0.9617473485 0.8329360634 0.1727663942
C 2.2996622031 0.2657476598 0.0246689852
C 2.5925508716 -1.0230165701 -0.3434487523
C 3.9898941928 -1.2698757346 -0.4105162404
C 4.7516106794 -0.1701576135 -0.0915568128
C 6.2180558073 -0.0498050637 -0.0435613931
C 7.0227081281 -1.1656071767 0.2221476573
C 8.4065711174 -1.0747498424 0.2669629305
C 9.0637167749 0.1574728117 0.0519898442
N 10.4362875146 0.2590494129 0.1019631777
C 11.0690668846 1.5405178471 -0.0930494048
C 11.2362265248 -0.9124006355 0.3634823305
C 8.2520797604 1.2823364023 -0.2134227325
C 6.8697848636 1.1709655406 -0.2606959254
S 3.7412683396 1.1753802994 0.3036039903
N -0.1285216023 0.1561137576 -0.0298913240
S -4.0295336014 1.1866656192 0.2874114180
C -7.2656003731 -1.2222405230 0.1234608890
C -8.6515356292 -1.1613086996 0.1672189239
H -11.0583979720 2.1105296901 0.7374965170
H -12.4505694474 1.2756942481 0.0071492664
H -11.1560608366 1.9084560967 -1.0321824923
H -12.5507297740 -0.8043085346 0.2885480454
H -11.2549465517 -1.4919284893 1.2973562938
H -11.3099074847 -1.8368891981 -0.4520346950
H -9.0129835101 2.1864885336 -0.3734267762
H -6.5871789895 2.0444561090 -0.4694824029
H -4.6384497082 -2.1993675585 -0.8142171741
H -2.0332660447 -1.6741394725 -0.6343585723
H -1.7090889189 3.0100754638 0.7683873721
H 1.8097002955 -1.7500400504 -0.5638304642
H 4.4262615105 -2.2242204309 -0.7110454041
H 6.5524540250 -2.1331619585 0.4204578509
H 8.9803815247 -1.9756726418 0.4871590207
H 10.8672294270 1.9584864217 -1.0962459036
H 12.1560136196 1.4289862899 0.0086313551
H 10.7364679427 2.2851869626 0.6526424157
H 11.0841639212 -1.6977565188 -0.3989086332
H 12.2985342183 -0.6374447797 0.3509784919
H 11.0166884945 -1.3576991649 1.3511914044
H 8.7019031342 2.2591466689 -0.3939913400
H 6.2800863498 2.0648616328 -0.4880086333
H -6.7762798068 -2.1862067474 0.2906114038
H -9.2070120478 -2.0809105098 0.3552199218
58
step=36 E=-2401.205901345269 Eh
C -11.3645678765 1.4188334387 -0.0693602517
N -10.7098661846 0.1383492792 0.0381460976
C -11.4831440647 -1.0490854489 0.3059449142
C -9.3337340148 0.0668171254 -0.0081427640
C -8.5441288368 1.2160635759 -0.2293444534
C -7.1592331289 1.1344402621 -0.2769461802
C -6.4827116694 -0.0792297725 -0.1006513208
C -5.0130182496 -0.1669325397 -0.1449923792
C -4.2255426350 -1.2396849671 -0.4837967491
C -2.8311497175 -0.9639892957 -0.3990839596
C -2.5672186767 0.3193691100 0.0007384824
C -1.2471984854 0.9288077161 0.1832323496
C -0.9931579709 2.2240105434 0.5527587354
S 0.6981127134 2.4907545169 0.6432349108
C 0.9613555442 0.8381094565 0.1757317327
C 2.2993775258 0.2711333578 0.0276457223
C 2.5918332631 -1.0177441687 -0.3402984052
C 3.9891320587 -1.2648477856 -0.4078039543
C 4.7510723834 -0.1651987997 -0.0891426194
C 6.2176787749 -0.0452201088 -0.0417116055
C 7.0224954258 -1.1613574372 0.2221157562
C 8.4064218814 -1.0709008360 0.2661887209
C 9.0635222686 0.1615488097 0.0526296395
N 10.4361268781 0.2629131309 0.1018651904
C 11.0689431390 1.5445817268 -0.0919074388
C 11.2361063111 -0.9090278031 0.3612398412
C 8.2516757326 1.2867844374 -0.2106707604
C 6.8693120687 1.1758822798 -0.2574452598
S 3.7411710885 1.1805813819 0.3064133262
N -0.1287104335 0.1608071116 -0.0262037633
S -4.0301899889 1.1903647184 0.2893764012
C -7.2661834491 -1.2185971416 0.1251671586
C -8.6521703705 -1.1577080974 0.1680402150
H -11.0589551241 2.1151769760 0.7336583378
H -12.4507676348 1.2797600813 0.0032168995
H -11.1555365430 1.9114486729 -1.0358989628
H -12.5516497056 -0.7992904411 0.2861524526
H -11.2569693695 -1.4869169348 1.2963133855
H -11.3107602310 -1.8329731713 -0.4529217397
H -9.0129319273 2.1897928548 -0.3755255232
H -6.5869855370 2.0475763192 -0.4698742142
H -4.6378441879 -2.1963908353 -0.8103113214
H -2.0327452798 -1.6704332306 -0.6298133407
H -1.7101863278 3.0151262289 0.7689642073
H 1.8087948073 -1.7446590143 -0.5604172918
H 4.4252057801 -2.2193069846 -0.7084054332
H 6.5522600241 -2.1291649221 0.4191948497
H 8.9803509338 -1.9721607772 0.4847120282
H 10.8664215584 1.9639394594 -1.0943938624
H 12.1559361663 1.4328028752 0.0089952010
H 10.7370045494 2.2883089452 0.6550109247
H 11.0834637488 -1.6933316322 -0.4021178095
H 12.2984479157 -0.6342454506 0.3482406059
H 11.0171503138 -1.3556532464 1.3484874448
H 8.7015399794 2.2637722193 -0.3901533753
H 6.2795823360 2.0701522945 -0.4832408159
H -6.7769647301 -2.1824474017 0.2933304507
H -9.2078729512 -2.0771259113 0.3564089742
58
step=37 E=-2401.205901357779 Eh
C -11.3644835861 1.4213748605 -0.0695716914
N -10.7101421390 0.1407243120 0.0383035195
C -11.4837871210 -1.0464171177 0.3063857064
C -9.3340211572 0.0687633032 -0.0079857003
C -8.5440505794 1.2177081607 -0.2295217712
C -7.1591898182 1.1355518940 -0.2771193439
C -6.4830332590 -0.0782960687 -0.1004863735
C -5.0133457417 -0.1665079072 -0.1448437381
C -4.2262051814 -1.2395616893 -0.4834296053
C -2.8317294053 -0.9641474665 -0.3988233935
C -2.5673555402 0.3192108407 0.0006917887
C -1.2472255877 0.9285097553 0.1829727229
C -0.9931269220 2.2238182191 0.5521219258
S 0.6981246553 2.4906132909 0.6425151290
C 0.9612325096 0.8378058377 0.1754499259
C 2.2994038677 0.2711361152 0.0274898220
C 2.5922153436 -1.0176915585 -0.3402751999
C 3.9896073428 -1.2643835102 -0.4076553635
C 4.7512979663 -0.1645480255 -0.0890515574
C 6.2178941916 -0.0440235925 -0.0414606098
C 7.0230869040 -1.1599546068 0.2221487159
C 8.4069979308 -1.0692158012 0.2663790891
C 9.0635710267 0.1635606689 0.0532627512
N 10.4361228253 0.2652013601 0.1026824037
C 11.0683959829 1.5472223491 -0.0907107045
C 11.2364325539 -0.9066014036 0.3617798187
C 8.2513895252 1.2886267763 -0.2097653495
C 6.8690658564 1.1774185298 -0.2567572315
S 3.7409732002 1.1809673564 0.3063132464
N -0.1287929299 0.1603959679 -0.0262815937
S -4.0301156777 1.1906189767 0.2891891452
C -7.2668587102 -1.2173469112 0.1256436549
C -8.6528341998 -1.1559226387 0.1685327691
H -11.0586521972 2.1178747484 0.7332308310
H -12.4507242971 1.2826206464 0.0030688182
H -11.1553380624 1.9136431937 -1.0362654666
H -12.5522192585 -0.7962857493 0.2865841629
H -11.2577414283 -1.4840901750 1.2968562577
H -11.3116721774 -1.8305394676 -0.4523073285
H -9.0125237701 2.1915671015 -0.3759404227
H -6.5866068110 2.0484294009 -0.4702946720
H -4.6387831366 -2.1962502296 -0.8096778575
H -2.0335119513 -1.6708606060 -0.6293996587
H -1.7101401053 3.0150156128 0.7681270457
H 1.8093970200 -1.7448570147 -0.5603880627
H 4.4259183010 -2.2187745791 -0.7081398029
H 6.5531280617 -2.1279774136 0.4188478693
H 8.9812564572 -1.9703420089 0.4846683462
H 10.8657344541 1.9667820194 -1.0930886134
H 12.1554272843 1.4359124802 0.0102717852
H 10.7360953701 2.2906091004 0.6564034231
H 11.0840842799 -1.6907206125 -0.4018373892
H 12.2986999709 -0.6315219760 0.3488915604
H 11.0175249714 -1.3535991286 1.3488704183
H 8.7010233942 2.2657926816 -0.3889137848
H 6.2790643495 2.0715725880 -0.4823652717
H -6.7779569307 -2.1813273735 0.2940411199
H -9.2088584646 -2.0750937311 0.3571764471
58
step=38 E=-2401.205901625486 Eh
C -11.3646587789 1.4234533592 -0.0705465051
N -10.7103601321 0.1428283699 0.0378999230
C -11.4840943070 -1.0442247820 0.3061124985
C -9.3342303273 0.0708249953 -0.0080901883
C -8.5442039858 1.2196947178 -0.2298404704
C -7.1593379628 1.1375758535 -0.2771750626
C -6.4832180346 -0.0762181670 -0.1000181491
C -5.0135257050 -0.1645079489 -0.1441078879
C -4.2264094539 -1.2376924664 -0.4823219550
C -2.8319265825 -0.9623165952 -0.3976638865
C -2.5675436385 0.3211362775 0.0015341559
C -1.2474101819 0.9304691462 0.1836497759
C -0.9933431484 2.2259253758 0.5522953118
S 0.6978994681 2.4927936310 0.6425854767
C 0.9610555029 0.8398049281 0.1761336023
C 2.2992464188 0.2731732067 0.0282209597
C 2.5920576811 -1.0157013594 -0.3393843801
C 3.9894613353 -1.2623301255 -0.4067652997
C 4.7511364491 -0.1624503825 -0.0882911374
C 6.2177369316 -0.0419315744 -0.0407545845
C 7.0229930700 -1.1579380851 0.2223043178
C 8.4069084692 -1.0671887691 0.2664285173
C 9.0634304673 0.1657141543 0.0538635677
N 10.4359827857 0.2674102100 0.1031906364
C 11.0682404914 1.5495138345 -0.0897381728
C 11.2363738897 -0.9044713271 0.3616713625
C 8.2511924420 1.2908846763 -0.2085498024
C 6.8688780694 1.1796243753 -0.2554960980
S 3.7407968649 1.1830764370 0.3070035765
N -0.1289602209 0.1622987747 -0.0253062322
S -4.0302948014 1.1926925845 0.2896994161
C -7.2671031996 -1.2151822485 0.1263075453
C -8.6530924301 -1.1538060477 0.1689541131
H -11.0589503033 2.1202270762 0.7320620998
H -12.4509130455 1.2847384323 0.0019536063
H -11.1553406323 1.9153783761 -1.0373783589
H -12.5525147530 -0.7940595743 0.2860814423
H -11.2582476658 -1.4816587716 1.2967325609
H -11.3118760840 -1.8285375199 -0.4523611468
H -9.0126691858 2.1935023102 -0.3766179897
H -6.5867152181 2.0503901974 -0.4705186297
H -4.6390100014 -2.1944562031 -0.8083241542
H -2.0337119738 -1.6691271835 -0.6279541573
H -1.7103758963 3.0171889447 0.7679948447
H 1.8092657907 -1.7429207461 -0.5594199986
H 4.4257685491 -2.2167474296 -0.7071680828
H 6.5530999777 -2.1260879238 0.4185298487
H 8.9812319300 -1.9683957525 0.4842219360
H 10.8654657987 1.9694979502 -1.0919122400
H 12.1552793001 1.4381737995 0.0111302440
H 10.7360181557 2.2925839906 0.6577301856
H 11.0839560268 -1.6882550444 -0.4022782118
H 12.2986292708 -0.6293438296 0.3487036611
H 11.0176218074 -1.3519147251 1.3485897037
H 8.7007814787 2.2681473896 -0.3872926550
H 6.2788377273 2.0738628026 -0.4806640077
H -6.7782114243 -2.1791049794 0.2950580609
H -9.2091410199 -2.0729192687 0.3577944792
