55
0 1 Before single point calculation
N 7.020830846 2.449774375 -0.014632421
N -7.022429113 2.447218258 0.002781599
N 0.001067091 -2.254638966 0.004994988
C 5.888454516 1.619001894 -0.002737868
C -5.888952618 1.617577105 0.006557808
C 3.617523271 -0.049760540 0.009338449
C -3.616407967 -0.048947962 0.010288390
C 4.596121806 2.155312512 -0.042680844
C 6.013414051 0.225638721 0.047010120
C -4.597181093 2.155632216 0.042272729
C -6.012695411 0.223658472 -0.026366092
C 3.491210483 1.342466913 -0.036131228
C 4.908233490 -0.587420398 0.052398641
C -3.491428245 1.343815624 0.043298350
C -4.906738679 -0.588266528 -0.023974850
C 2.427765024 -0.875127097 0.008392300
C -2.426027975 -0.873442281 0.011279999
C 1.147306398 -2.949420994 0.006072398
C -1.145725668 -2.948376343 -0.004661538
C 6.901402919 3.905052834 -0.097550995
C 8.374458375 1.898974512 0.043924471
C -8.371634787 1.900066602 -0.135055943
C -6.909587539 3.899670859 0.130265227
C 2.393458053 -2.217003744 0.013390290
C -2.391456056 -2.215230864 -0.005865961
C 1.176384685 -4.340735726 -0.001821158
C -1.175914844 -4.339663822 -0.013838609
C -0.000068999 -5.043941836 -0.012138278
H 4.469487801 3.222590380 -0.078367591
H 6.994524797 -0.213473621 0.079487145
H -4.471841548 3.223450830 0.061649633
H -6.993670908 -0.216763123 -0.046661970
H 2.505655929 1.774883880 -0.068406999
H 5.037348922 -1.654248169 0.091860237
H -2.506257235 1.777555438 0.068819246
H -5.035172312 -1.655657314 -0.049444743
H 1.482902687 -0.361859189 -0.002357088
H -1.481465912 -0.359775847 0.027566312
H 6.365769054 4.184521672 -1.003051526
H 7.879891942 4.380451167 -0.123153339
H 6.361518279 4.285287424 0.767791520
H 8.555483414 1.260878344 -0.819183217
H 8.500155222 1.313380425 0.952874867
H 9.122431601 2.689282757 0.044708622
H -8.627025410 1.310407962 0.743420159
H -8.429784044 1.267041538 -1.018542337
H -9.108804698 2.693459093 -0.241695259
H -6.326034939 4.153454888 1.013425940
H -7.889196914 4.362709245 0.231026579
H -6.422886275 4.314974208 -0.750378638
H 3.307543030 -2.780607027 0.017682171
H -3.305483249 -2.778752896 -0.020006969
H 2.122578575 -4.854310279 -0.000942502
H -2.122537445 -4.852400131 -0.021885059
H -0.000545561 -6.121796929 -0.019136229
