60
0 1 Before single point calculation
C 10.764979543 -2.925923898 0.009962000
N 10.534305282 -1.484002726 -0.063081727
C 11.714881947 -0.628766026 -0.177214142
C 9.235640569 -0.944836410 -0.035700661
C 9.024158630 0.436330185 -0.109189905
C 7.757194811 0.963894115 -0.088587436
C 6.634147676 0.136763485 0.005823362
C 5.282118414 0.671201789 0.019260453
C 4.918037068 1.991466823 -0.006703718
C 3.521305035 2.205373287 0.005935723
C 2.781320872 1.057055735 0.040642393
C 1.334319512 1.004750409 0.050393663
C 0.679471003 -0.213607594 0.074355128
C -0.678995674 -0.213786907 0.072415796
C -1.334058097 1.004398470 0.047639490
C -2.781030186 1.056447049 0.037358430
C -3.521399407 2.204992519 0.021780738
C -4.918049180 1.991055271 0.009022000
C -5.281823186 0.670461638 0.014318202
C -6.633809552 0.136065347 -0.000850949
C -7.758379759 0.965536413 -0.042786011
C -9.025571686 0.438432389 -0.061424352
C -9.235649653 -0.944620982 -0.038159141
N -10.534854355 -1.483145934 -0.059988957
C -10.768572742 -2.921839158 0.055794193
C -11.714114860 -0.630755848 -0.203686398
C -8.109728969 -1.773521921 0.006137271
C -6.843990470 -1.244528029 0.023174189
S -3.846833429 -0.324121899 0.040060532
N -0.647083579 2.155893631 0.029079870
N 0.647206654 2.156094740 0.029513474
S 3.847611872 -0.322899764 0.067011402
C 6.845659390 -1.241822154 0.080931545
C 8.111221256 -1.771175618 0.061980072
H 10.274132475 -3.424978801 -0.823463261
H 10.369873048 -3.319901715 0.944489959
H 11.827042226 -3.158080354 -0.034070651
H 11.674709786 -0.059547515 -1.104066013
H 12.629673957 -1.217828975 -0.180318007
H 11.758813846 0.061048232 0.663439761
H 9.870831267 1.094853648 -0.185062420
H 7.623733728 2.029290663 -0.150315477
H 5.629247129 2.801530343 -0.034873932
H 3.065975876 3.183499206 -0.014548950
H 1.243404146 -1.129851628 0.090916336
H -1.242758303 -1.130164014 0.087457701
H -3.066355383 3.183452020 0.017845550
H -5.629374304 2.801397112 -0.004459609
H -7.626140969 2.032689314 -0.061347190
H -9.873823917 1.098805914 -0.087987952
H -10.364930381 -3.436719022 -0.814093252
H -11.831874876 -3.143304335 0.121909503
H -10.288121726 -3.307038368 0.953323071
H -11.613374089 0.001039368 -1.084243745
H -12.617683171 -1.225940545 -0.318987871
H -11.828554196 -0.000726079 0.676411359
H -8.239958191 -2.840776953 0.019705693
H -5.987599544 -1.895075614 0.054346682
H 5.990465523 -1.890558252 0.154043736
H 8.242328088 -2.836731324 0.121609560
