42
Properties=species:S:1:pos:R:3 Co(acac)(Me2P-propylene-PMe2)+;=T repaired=T initial=T CoP2O2=T geometry,=T charge=T +1,=T high-spin=T Co(II)=T starting=T structure=T pbc="F F F" explicit_bonds=b1_26_1,b1_30_1,b3_5_2,b4_7_2,b5_6_1,b5_8_1,b6_7_1,b6_10_1,b7_9_1,b8_11_1,b8_12_1,b8_13_1,b9_14_1,b9_15_1,b9_16_1,b17_18_1,b17_20_1,b17_21_1,b18_22_1,b18_23_1,b19_24_1,b19_25_1,b26_27_1,b26_28_1,b26_29_1,b30_31_1,b30_32_1,b30_33_1,b34_35_1,b34_36_1,b34_37_1,b38_39_1,b38_40_1,b38_41_1
Co       0.00000000       0.00000000       0.00000000
P        2.15943209       0.00000000       0.04952826
P        0.00000000       2.18000000      -0.05000000
O       -1.88000000       0.00000000       0.05000000
O        0.00000000      -1.88000000      -0.05000000
C       -2.75000000      -0.85000000       0.05000000
C       -2.00000000      -2.00000000       0.00000000
C       -0.85000000      -2.75000000      -0.05000000
C       -4.20000000      -0.65000000       0.10000000
C       -0.65000000      -4.20000000      -0.10000000
H       -2.25000000      -2.25000000       1.05000000
H       -4.65000000      -1.20000000       0.90000000
H       -4.50000000       0.40000000       0.25000000
H       -4.70000000      -1.00000000      -0.82500000
H       -1.20000000      -4.65000000      -0.90000000
H        0.40000000      -4.50000000      -0.25000000
H       -1.00000000      -4.70000000       0.82500000
C        1.64800000       0.53200000       1.67700000
C        1.08200000       1.09800000       0.38100000
C        0.46000000       1.72000000       1.62300000
H        1.20000000       0.00000000       2.50000000
H        2.52000000       1.05000000       2.10000000
H        0.65000000       1.35000000      -0.55000000
H        1.65000000       1.85000000       0.90000000
H       -0.14000000       1.08000000       2.28000000
H        1.20000000       2.29000000       2.20000000
C        3.55000000      -0.85000000       0.95000000
H        3.82000000      -0.32000000       1.88000000
H        3.27000000      -1.90000000       1.13000000
H        4.43000000      -0.83000000       0.28000000
C        2.75000000      -1.10000000      -1.35000000
H        2.84000000      -2.19000000      -1.18000000
H        1.94000000      -0.91000000      -2.07000000
H        3.70000000      -0.68000000      -1.72000000
C       -1.55000000       2.95000000       0.65000000
H       -1.84000000       2.47000000       1.60000000
H       -1.42000000       4.03000000       0.84000000
H       -2.39000000       2.83000000      -0.06000000
C       -0.65000000       2.95000000      -1.65000000
H       -0.62000000       4.05000000      -1.76000000
H        0.08000000       2.57000000      -2.39000000
H       -1.66000000       2.60000000      -1.91000000
