85
rdkit_etkdg_mmff_conf_3
C 13.64219796 -2.54052643 -1.30515873
C 12.94104756 -2.28487552 0.03315845
C 13.94302867 -2.07331582 1.17317622
C 12.06430249 -3.50057696 0.36950342
O 12.01234048 -1.17540688 -0.06462097
C 12.45976490 0.06820344 -0.34925846
O 13.61057925 0.42486836 -0.55238919
N 11.39964691 1.00259339 -0.39356611
C 11.60279881 2.35375605 -0.65364294
C 10.40375098 3.01681095 -0.62355327
C 9.39963765 2.06143746 -0.34010187
C 7.99945337 2.16231967 -0.18927363
C 7.21851763 1.02870373 0.09174209
C 5.76069849 1.14065544 0.25503769
C 5.20501622 2.01839641 1.19457308
C 3.81734185 2.12358389 1.35133557
C 2.93282041 1.35746581 0.57477867
C 1.48140432 1.51409438 0.78780066
N 0.94487174 2.34446266 1.66178615
N -0.43152030 2.30054336 1.66903546
C -0.92314563 1.43543422 0.80267660
C -2.36360490 1.18466375 0.60704050
C -2.87286944 0.22678165 -0.28229273
C -4.25488772 0.02754189 -0.41738656
C -5.17481818 0.77790359 0.32832099
C -6.62402009 0.56158887 0.19261203
C -7.18314856 -0.70668410 0.38803639
C -8.56101604 -0.93585396 0.27842771
C -9.40096889 0.14630505 -0.03926385
C -8.87487368 1.42531971 -0.24588117
C -9.95504054 2.28744626 -0.55037758
C -11.10426464 1.53721176 -0.52036041
N -10.79021631 0.21984443 -0.20473099
C -11.71046008 -0.84489850 -0.07366380
O -11.35375425 -1.97789091 0.20573641
O -12.97176724 -0.39795086 -0.29931080
C -14.09728502 -1.30803174 -0.21567535
C -14.24729322 -1.87705570 1.19932005
C -13.99560052 -2.41561477 -1.26978268
C -15.32523993 -0.44060475 -0.53010869
C -7.48303039 1.62806644 -0.12814935
C -4.66797877 1.73785305 1.21373001
C -3.28837634 1.93588679 1.35082868
S 0.30184165 0.61799934 -0.08821512
C 3.49107011 0.48005056 -0.36673970
C 4.88127804 0.37368389 -0.52194786
C 7.86491090 -0.20463390 0.21647426
C 9.25363241 -0.33435291 0.07433778
C 10.02140187 0.81257038 -0.20424875
H 12.91255732 -2.60506224 -2.12007892
H 14.22093282 -3.47017503 -1.28079207
H 14.33215610 -1.73239092 -1.56574352
H 13.42535123 -1.80539154 2.10093598
H 14.53727239 -2.97559794 1.35403927
H 14.64140700 -1.25907939 0.95749536
H 12.65759148 -4.41561527 0.46924829
H 11.30726107 -3.66156333 -0.40668878
H 11.51696531 -3.33875294 1.30547541
H 12.60623323 2.71920880 -0.83552819
H 10.26373371 4.07747426 -0.78819232
H 7.52619246 3.13501226 -0.30354221
H 5.85107215 2.62541234 1.82647513
H 3.43045964 2.81724223 2.09746511
H -2.21575014 -0.38965518 -0.89028646
H -4.61042536 -0.72094060 -1.12374010
H -6.54217314 -1.54770857 0.64978697
H -8.95437898 -1.93500983 0.44554719
H -9.89742831 3.34637585 -0.76704478
H -12.13165915 1.82854707 -0.69595637
H -14.23065498 -1.07403390 1.94481771
H -15.18478289 -2.43304113 1.30741334
H -13.43033876 -2.55917048 1.45401697
H -13.80025343 -1.99194751 -2.26132903
H -13.17505313 -3.10742139 -1.05723618
H -14.91732848 -3.00541492 -1.31821484
H -15.23625517 0.01498560 -1.52323902
H -15.41000482 0.38776034 0.18302746
H -16.25297943 -1.02136859 -0.49794723
H -7.07763170 2.62316445 -0.29650028
H -5.34597601 2.33500556 1.82116808
H -2.94002826 2.68943420 2.05680261
H 2.86619009 -0.13996283 -1.00435735
H 5.27420472 -0.31155725 -1.27126444
H 7.28522734 -1.09806648 0.44544797
H 9.70012010 -1.31646863 0.18740181
