80
Properties=species:S:1:pos:R:3 Co(acac)(iPr2P-propylene-PCy2)+;=T plausible=T initial=T 3D=T XYZ=T geometry,=T cationic=T Co(II)=T precursor-like=T complex=T pbc="F F F" explicit_bonds=b0_4_1,b2_63_1,b3_5_2,b4_7_1,b5_6_1,b5_8_1,b6_7_1,b6_10_1,b7_9_1,b8_11_1,b8_12_1,b8_13_1,b9_14_1,b9_15_1,b9_16_1,b17_18_1,b17_20_1,b17_21_1,b18_22_1,b18_23_1,b19_24_1,b25_46_1,b26_27_1,b26_28_1,b26_29_1,b27_30_1,b27_31_1,b27_32_1,b28_33_1,b28_34_1,b28_35_1,b36_37_1,b36_38_1,b36_39_1,b37_40_1,b37_41_1,b37_42_1,b38_43_1,b38_44_1,b38_45_1,b46_52_1,b47_48_1,b47_53_1,b47_54_1,b48_49_1,b48_55_1,b48_56_1,b49_50_1,b49_57_1,b49_58_1,b50_51_1,b50_59_1,b50_60_1,b51_61_1,b51_62_1,b63_64_1,b63_68_1,b63_69_1,b64_65_1,b64_70_1,b64_71_1,b65_66_1,b65_72_1,b65_73_1,b66_67_1,b66_74_1,b66_75_1,b67_68_1,b67_76_1,b67_77_1,b68_78_1,b68_79_1
Co       0.00000000       0.00000000       0.00000000
P        2.15943209       0.00000000       0.04952826
P        0.00000000       2.18000000      -0.05000000
O       -1.88000000       0.00000000       0.05000000
O        0.00000000      -1.88000000      -0.05000000
C       -2.75000000      -0.85000000       0.05000000
C       -2.00000000      -2.00000000       0.00000000
C       -0.85000000      -2.75000000      -0.05000000
C       -4.20000000      -0.65000000       0.10000000
C       -0.65000000      -4.20000000      -0.10000000
H       -2.25000000      -2.25000000       1.05000000
H       -4.65000000      -1.20000000       0.90000000
H       -4.50000000       0.40000000       0.25000000
H       -4.70000000      -1.00000000      -0.82500000
H       -1.20000000      -4.65000000      -0.90000000
H        0.40000000      -4.50000000      -0.25000000
H       -1.00000000      -4.70000000       0.82500000
C        2.05000000       1.71000000       0.62000000
C        1.19000000       2.54000000       1.52000000
C        0.54000000       3.54000000       0.58000000
H        3.02000000       2.13000000       0.93000000
H        1.60000000       1.63000000      -0.38000000
H        1.83000000       3.08000000       2.23000000
H        0.39000000       1.94000000       1.98000000
H        1.29000000       4.30000000       0.31000000
H       -0.35000000       4.03000000       0.99000000
C        3.60000000      -0.85000000       0.85000000
C        4.72000000      -0.05000000       1.42000000
C        3.25000000      -1.85000000       1.95000000
H        3.98000000      -1.35000000      -0.02000000
H        4.98000000       0.75000000       0.72000000
H        5.61000000      -0.66000000       1.63000000
H        4.41000000       0.40000000       2.38000000
H        2.47000000      -2.50000000       1.54000000
H        4.14000000      -2.48000000       2.13000000
H        2.91000000      -1.35000000       2.88000000
C        2.90000000      -1.10000000      -1.30000000
C        4.20000000      -0.65000000      -1.95000000
C        2.50000000      -2.50000000      -1.85000000
H        3.09000000      -1.21000000      -0.21000000
H        4.50000000       0.35000000      -1.60000000
H        5.03000000      -1.34000000      -1.80000000
H        4.05000000      -0.63000000      -3.04000000
H        1.63000000      -2.85000000      -1.28000000
H        3.33000000      -3.21000000      -1.80000000
H        2.20000000      -2.45000000      -2.90000000
C       -0.85000000       3.60000000       0.90000000
C       -2.13000000       3.95000000       0.15000000
C       -2.76000000       5.15000000       0.86000000
C       -1.78000000       6.28000000       1.12000000
C       -0.50000000       5.93000000       1.87000000
C        0.13000000       4.73000000       1.16000000
H       -1.15000000       3.10000000       1.78000000
H       -2.87000000       3.15000000       0.03000000
H       -1.88000000       4.21000000      -0.89000000
H       -3.67000000       5.51000000       0.36000000
H       -3.06000000       4.82000000       1.87000000
H       -2.25000000       7.15000000       1.60000000
H       -1.48000000       6.63000000       0.12000000
H       -0.73000000       5.70000000       2.93000000
H        0.22000000       6.75000000       1.78000000
H        1.04000000       4.39000000       1.68000000
H        0.44000000       5.05000000       0.15000000
C       -1.15000000       2.90000000      -1.30000000
C       -1.95000000       3.98000000      -2.05000000
C       -3.37000000       3.50000000      -2.35000000
C       -4.17000000       2.75000000      -1.28000000
C       -3.37000000       1.67000000      -0.53000000
C       -1.95000000       2.15000000      -0.23000000
H       -0.32000000       3.18000000      -1.98000000
H       -1.42000000       4.42000000      -2.90000000
H       -2.00000000       4.80000000      -1.32000000
H       -3.93000000       4.34000000      -2.79000000
H       -3.35000000       2.85000000      -3.24000000
H       -5.19000000       2.40000000      -1.53000000
H       -4.28000000       3.39000000      -0.39000000
H       -3.34000000       1.02000000      -1.42000000
H       -3.90000000       1.17000000       0.29000000
H       -1.38000000       1.30000000       0.18000000
H       -1.98000000       2.77000000       0.68000000
