51
rdkit_etkdg_mmff_conf_5
C 6.78096172 -1.65005965 2.60046984
N 6.63068828 -1.23339032 1.22378798
C 7.52829519 -1.50289685 0.22448513
C 7.04187463 -0.95114306 -0.93857392
C 5.80230448 -0.32422372 -0.63576659
C 4.85875420 0.39005323 -1.40255238
C 3.69534357 0.89190247 -0.79719383
C 2.74664967 1.65441467 -1.62343944
C 1.41070960 1.53538766 -1.52910996
C 0.44960822 2.25080891 -2.31712141
C 0.71591514 3.17994862 -3.36013398
C -0.50377479 3.60182667 -3.81790020
O -1.49774117 2.99961574 -3.12980647
C -0.94201146 2.15274742 -2.18805073
C -1.73642352 1.37015774 -1.29598654
C -3.07724831 1.43258914 -1.32847108
C -3.95062990 0.66572333 -0.42811631
C -5.09216412 1.28615995 0.08872831
C -5.98005754 0.60590700 0.93126981
C -5.69839794 -0.73349890 1.23820523
C -4.57472977 -1.38841969 0.72842386
C -4.60120132 -2.72117199 1.22427037
C -5.71937335 -2.85209128 2.01607027
N -6.37336708 -1.64839439 2.02037849
C -7.59972868 -1.37965397 2.73757175
C -3.69593823 -0.68074506 -0.11819958
C 3.49760232 0.70301093 0.57465456
C 4.41957709 -0.00307200 1.35759776
C 5.56483705 -0.51084451 0.72791506
H 7.72584437 -2.18682923 2.72054364
H 5.94618866 -2.30839570 2.85455779
H 6.77924002 -0.76005487 3.23561276
H 8.43556401 -2.06114364 0.41493067
H 7.52482527 -0.99259968 -1.90619422
H 5.03874560 0.53655296 -2.46384492
H 3.20197570 2.32208580 -2.34886407
H 1.01778245 0.82791567 -0.80304791
H 1.67377686 3.50617786 -3.73832466
H -0.81816671 4.29195801 -4.58790577
H -1.23487384 0.73227750 -0.57695183
H -3.58714416 2.09159644 -2.02810973
H -5.30384839 2.32539605 -0.15643176
H -6.85774373 1.10822468 1.32505723
H -3.87964012 -3.50066417 1.01837198
H -6.09620885 -3.70244748 2.56925411
H -8.36556214 -1.08434610 2.01571001
H -7.41234710 -0.57570836 3.45388946
H -7.91963353 -2.28043515 3.26815596
H -2.83486809 -1.19531136 -0.53401015
H 2.61884419 1.11755769 1.06440308
H 4.24691553 -0.13970749 2.41979233
