73
rdkit_etkdg_mmff_conf_4
C 10.93705220 -0.06385680 -0.85374221
C 9.86933596 -1.05391023 -0.36301583
C 10.42186968 -1.80925935 0.85070558
C 9.51391233 -2.00210585 -1.51403082
O 8.73967629 -0.22365708 0.00560182
C 7.59965336 -0.79072003 0.47775537
O 7.36930114 -1.97703292 0.65500444
N 6.64480856 0.21076615 0.76586866
C 6.83593904 1.58194908 0.63822764
C 5.69198673 2.23993540 1.01674220
C 4.73966713 1.26190423 1.39091570
C 3.40780650 1.34044758 1.85036351
C 2.68926269 0.16888898 2.12572719
C 1.31445476 0.22115001 2.63846906
C 0.22310482 0.76459381 2.07293603
C 0.17178649 1.38193863 0.78964463
N 1.04641420 1.32522638 -0.19534765
N 0.67247121 2.05729966 -1.30126855
C -0.50983517 2.62504350 -1.17059817
C -1.11579943 3.46993764 -2.14178215
C -2.39418689 3.42977562 -2.55284071
C -3.44773569 2.49448917 -2.14179999
C -4.62313482 2.99437724 -1.58299011
C -5.66038924 2.14063128 -1.19143456
C -5.50197694 0.75446943 -1.37868408
C -4.33427545 0.23425285 -1.94803262
C -4.47585254 -1.17249135 -2.00378424
C -5.70433087 -1.48522632 -1.47752915
N -6.35453590 -0.31914515 -1.08968640
C -7.64241271 -0.23906630 -0.51267349
O -8.14716350 0.82810123 -0.20163808
O -8.17141003 -1.48247502 -0.38362194
C -9.49905565 -1.65860141 0.17202542
C -10.56088193 -0.98385141 -0.70366662
C -9.73415290 -3.17666761 0.14936598
C -9.56345281 -1.17385973 1.62433113
C -3.30358840 1.11387558 -2.33936950
S -1.20581239 2.35250483 0.38722340
C 3.30963363 -1.07100802 1.97208778
C 4.63230763 -1.17369105 1.52479752
C 5.34003692 0.00763892 1.23375875
H 11.19047950 0.65745290 -0.06748246
H 11.85412277 -0.57580071 -1.16381547
H 10.56357645 0.52296802 -1.70191045
H 9.72883858 -2.57955437 1.20241914
H 11.37070240 -2.30450944 0.61509486
H 10.58401491 -1.12536203 1.69221651
H 10.40436023 -2.51090998 -1.90078089
H 8.80358687 -2.77527773 -1.20393871
H 9.04175909 -1.45358398 -2.33755742
H 7.78004613 1.97383562 0.28380324
H 5.54948238 3.31265239 1.01596175
H 2.94250712 2.31451502 1.97226267
H 1.20031904 -0.25191520 3.61306898
H -0.70503840 0.71633501 2.63772586
H -0.44645559 4.18510114 -2.61274031
H -2.71498644 4.15189775 -3.30246003
H -4.74709911 4.06554519 -1.43455512
H -6.56300651 2.55753944 -0.75309607
H -3.75371062 -1.88160626 -2.38793877
H -6.18100158 -2.44770625 -1.34539108
H -10.43912933 -1.27304794 -1.75389136
H -10.48606106 0.10733791 -0.66902605
H -11.57378940 -1.25272702 -0.38256812
H -8.97416436 -3.69758746 0.74401725
H -10.72173860 -3.44197965 0.54208115
H -9.65012851 -3.56865554 -0.87146356
H -10.51443076 -1.44861594 2.09347415
H -9.46604253 -0.08663624 1.69661244
H -8.74544523 -1.60286541 2.21416094
H -2.40012447 0.71137410 -2.79092189
H 2.76348424 -1.98669929 2.18938917
H 5.08457481 -2.15408562 1.40290779
