51
rdkit_etkdg_mmff_conf_4
C 6.08427144 2.83838599 -2.31814017
N 4.74425572 2.36498944 -2.05270095
C 3.59880501 2.99213601 -2.46639622
C 2.52852537 2.24696653 -2.02704622
C 3.04210819 1.12674744 -1.31820102
C 2.44336819 0.03608276 -0.65448200
C 3.24531246 -0.93093694 -0.02557904
C 2.66067610 -2.09775197 0.65287701
C 1.56426771 -2.03432174 1.42754292
C 0.94747182 -3.14462439 2.10217905
C 1.64056933 -4.32233654 2.53044731
C 0.82330709 -5.19810009 3.20496160
S -0.76950156 -4.61026199 3.33799205
C -0.40217983 -3.17498720 2.44652200
C -1.47313290 -2.26048602 2.20770460
C -1.67949471 -1.72467159 0.99362080
C -2.76339807 -0.77917875 0.69037565
C -4.05816855 -0.94831981 1.19103474
C -5.08887954 -0.05450992 0.87418757
C -4.78974405 1.02013421 0.02439258
C -3.51154349 1.20951833 -0.50550633
C -3.55970108 2.37444701 -1.31899466
C -4.84381714 2.86705471 -1.27103110
N -5.57843969 2.04391183 -0.45908228
C -6.98019819 2.22429741 -0.15460887
C -2.49135997 0.29483486 -0.17268569
C 4.63735292 -0.81646990 -0.09011198
C 5.25618111 0.25648069 -0.74380219
C 4.43531764 1.21865410 -1.34949955
H 6.60955365 2.07882077 -2.90271076
H 6.03807791 3.77324310 -2.88250099
H 6.58679815 3.00853014 -1.36256390
H 3.63185632 3.91137671 -3.03634184
H 1.48582712 2.48155635 -2.19503625
H 1.36083030 -0.04616206 -0.64676102
H 3.17704603 -3.03958387 0.49020864
H 1.08721800 -1.06546741 1.56884408
H 2.69494859 -4.51422969 2.37521479
H 1.09101035 -6.15104510 3.63978995
H -2.13797984 -2.03339523 3.03717979
H -1.02694660 -1.96562553 0.15722504
H -4.29136794 -1.79495059 1.83358423
H -6.08648086 -0.20249360 1.27440107
H -2.74003847 2.80478624 -1.87883942
H -5.28609300 3.73155828 -1.74845094
H -7.08690443 2.34302052 0.92666922
H -7.52579402 1.34391470 -0.50380378
H -7.35417401 3.11674537 -0.66295029
H -1.49588072 0.43758557 -0.58326353
H 5.26808226 -1.56679880 0.38315791
H 6.33817987 0.33092967 -0.77523288
