51

Co 0.170070 0.324297 -0.023240
P 2.356441 0.529858 0.104676
P 0.096973 2.504467 -0.374326
O -1.717859 0.187543 -0.226321
O 0.427779 -1.532362 0.312099
C -2.413814 -0.897276 -0.110873
C -1.875797 -2.170420 0.169224
C -0.504694 -2.430515 0.359900
C -3.898120 -0.726365 -0.311508
C -0.024294 -3.829360 0.648552
H -2.571903 -3.016252 0.240051
H -4.459486 -1.661319 -0.135702
H -4.280323 0.062354 0.368038
H -4.097242 -0.380466 -1.347397
H -0.845424 -4.568102 0.644044
H 0.736508 -4.126538 -0.102055
H 0.476961 -3.854838 1.638498
C 2.826732 2.330719 0.138397
C 1.827970 3.112930 -0.723788
H 3.875427 2.488840 -0.185971
H 2.769551 2.648129 1.201696
H 1.895112 4.208468 -0.555468
H 2.016040 2.940892 -1.805357
C 3.091322 -0.269093 1.598399
C 4.614307 -0.274070 1.755238
H 2.602937 0.242357 2.456631
H 2.671086 -1.297242 1.583252
H 4.886693 -0.707742 2.738317
H 5.048616 0.745144 1.715323
H 5.109914 -0.890605 0.980497
C 3.117933 -0.229457 -1.413682
C 4.523428 0.216353 -1.826267
H 3.063746 -1.323363 -1.225010
H 2.395469 -0.039027 -2.236271
H 4.846764 -0.351148 -2.721978
H 5.277041 0.043075 -1.034822
H 4.556056 1.290746 -2.097496
C -0.433506 3.479526 1.120292
C -1.569457 2.848174 1.930626
H 0.474612 3.591046 1.750834
H -0.696490 4.500818 0.767925
H -1.815000 3.483781 2.804519
H -1.288756 1.845706 2.312495
H -2.491978 2.723924 1.331945
C -0.880214 3.156312 -1.810128
C -2.403261 3.129904 -1.662667
H -0.557296 2.552666 -2.685629
H -0.511667 4.191193 -1.987262
H -2.750887 3.800732 -0.852000
H -2.767229 2.107722 -1.447408
H -2.877064 3.480935 -2.600783
