75
Properties=species:S:1:pos:R:3 Co(acac)(iPr2P-cis-1,2-cyclohexylene-PPh2)+;=T plausible=T initial=T 3D=T XYZ=T geometry=T pbc="F F F" explicit_bonds=b0_3_1,b0_4_1,b2_18_1,b2_64_1,b3_5_1,b4_7_1,b5_6_1,b5_8_1,b6_7_2,b6_10_1,b7_9_1,b8_11_1,b8_12_1,b8_13_1,b9_14_1,b9_15_1,b9_16_1,b17_18_1,b17_22_1,b17_23_1,b18_24_1,b19_25_1,b20_21_1,b20_27_1,b20_28_1,b21_22_1,b21_29_1,b21_30_1,b22_31_1,b22_32_1,b26_58_1,b33_34_1,b33_35_1,b33_36_1,b34_37_1,b34_38_1,b34_39_1,b35_40_1,b35_41_1,b35_42_1,b43_44_1,b43_45_1,b43_46_1,b44_47_1,b44_48_1,b44_49_1,b45_50_1,b45_51_1,b45_52_1,b53_54_1,b54_55_1,b54_59_1,b55_56_2,b55_60_1,b56_57_1,b56_61_1,b57_62_1,b64_65_2,b64_69_1,b65_66_1,b65_70_1,b66_67_2,b66_71_1,b67_68_1,b67_72_1,b68_69_2,b68_73_1,b69_74_1
Co       0.00000000       0.00000000       0.00000000
P        2.15943209       0.00000000       0.04952826
P        0.00000000       2.18000000      -0.05000000
O       -1.88000000       0.00000000       0.05000000
O        0.00000000      -1.88000000      -0.05000000
C       -2.75000000      -0.85000000       0.05000000
C       -2.00000000      -2.00000000       0.00000000
C       -0.85000000      -2.75000000      -0.05000000
C       -4.20000000      -0.65000000       0.10000000
C       -0.65000000      -4.20000000      -0.10000000
H       -2.25000000      -2.25000000       1.05000000
H       -4.65000000      -1.20000000       0.90000000
H       -4.50000000       0.40000000       0.25000000
H       -4.70000000      -1.00000000      -0.82500000
H       -1.20000000      -4.65000000      -0.90000000
H        0.40000000      -4.50000000      -0.25000000
H       -1.00000000      -4.70000000       0.82500000
C        2.05000000       1.55000000       0.85000000
C        1.05000000       2.25000000       0.25000000
C        1.40000000       3.70000000       0.45000000
C        2.75000000       4.10000000      -0.15000000
C        3.75000000       3.15000000       0.45000000
C        3.45000000       1.75000000       0.15000000
H        1.75000000       1.42000000       1.90000000
H        0.40000000       2.18000000       1.13000000
H        1.43000000       3.96000000       1.52000000
H        0.60000000       4.30000000      -0.02000000
H        2.67000000       4.02000000      -1.25000000
H        3.00000000       5.15000000       0.08000000
H        4.76000000       3.43000000       0.11000000
H        3.76000000       3.23000000       1.55000000
H        4.14000000       1.07000000       0.68000000
H        3.67000000       1.52000000      -0.90000000
C        3.60000000      -0.85000000       0.85000000
C        4.72000000      -0.05000000       1.42000000
C        3.25000000      -1.85000000       1.95000000
H        3.98000000      -1.35000000      -0.02000000
H        4.98000000       0.75000000       0.72000000
H        5.61000000      -0.66000000       1.63000000
H        4.41000000       0.40000000       2.38000000
H        2.47000000      -2.50000000       1.54000000
H        4.14000000      -2.48000000       2.13000000
H        2.91000000      -1.35000000       2.88000000
C        2.90000000      -1.10000000      -1.30000000
C        4.20000000      -0.65000000      -1.95000000
C        2.50000000      -2.50000000      -1.85000000
H        3.09000000      -1.21000000      -0.21000000
H        4.50000000       0.35000000      -1.60000000
H        5.03000000      -1.34000000      -1.80000000
H        4.05000000      -0.63000000      -3.04000000
H        1.63000000      -2.85000000      -1.28000000
H        3.33000000      -3.21000000      -1.80000000
H        2.20000000      -2.45000000      -2.90000000
C       -0.85000000       3.60000000       0.90000000
C       -2.15000000       3.82000000       1.35000000
C       -2.90000000       4.92000000       0.93000000
C       -2.35000000       5.83000000       0.02000000
C       -1.05000000       5.62000000      -0.43000000
C       -0.30000000       4.52000000      -0.01000000
H       -2.58000000       3.11000000       2.06000000
H       -3.92000000       5.09000000       1.29000000
H       -2.94000000       6.69000000      -0.31000000
H       -0.62000000       6.33000000      -1.14000000
H        0.72000000       4.35000000      -0.37000000
C       -1.05000000       2.90000000      -1.35000000
C       -1.10000000       3.50000000      -2.62000000
C       -2.15000000       3.38000000      -3.54000000
C       -3.15000000       2.62000000      -3.19000000
C       -3.10000000       2.02000000      -1.92000000
C       -2.05000000       2.14000000      -1.00000000
H       -0.33000000       4.10000000      -2.91000000
H       -2.19000000       3.85000000      -4.53000000
H       -3.97000000       2.53000000      -3.91000000
H       -3.87000000       1.43000000      -1.63000000
H       -2.01000000       1.67000000      -0.01000000
