51
1 2 Before single point calculation
Co 0.000000000 0.000000000 0.000000000
P 2.159432326 0.000000000 0.049528265
P 0.000000000 2.180000108 -0.050000003
O -1.880000077 0.000000000 0.050000003
O 0.000000000 -1.880000077 -0.050000003
C -2.749999990 -0.850000067 0.050000003
C -2.000000039 -2.000000039 0.000000000
C -0.850000067 -2.749999990 -0.050000003
C -4.199999930 -0.649999962 0.100000005
C -0.649999962 -4.199999930 -0.100000005
H -2.250000107 -2.250000107 1.049999982
H -4.650000102 -1.200000124 0.899999967
H -4.500000213 0.400000020 0.250000005
H -4.700000066 -1.000000019 -0.825000022
H -1.200000124 -4.650000102 -0.899999967
H 0.400000020 -4.500000213 -0.250000005
H -1.000000019 -4.700000066 0.825000022
C 2.050000002 1.549999992 0.850000067
C 1.250000087 2.250000107 -0.250000005
H 3.050000021 1.899999986 1.169999944
H 1.520000065 1.389999959 1.799999934
H 1.790000042 3.140000056 0.100000005
H 1.269999997 2.130000145 -1.340000122
C 3.619999903 -0.850000067 0.850000067
H 3.849999936 -0.430000011 1.840000131
H 3.300000089 -1.899999986 1.019999992
H 4.479999925 -0.879999994 0.160000002
C 2.900000132 -1.100000072 -1.299999924
H 3.020000094 -2.189999999 -1.169999944
H 2.140000036 -0.890000012 -2.069999911
H 3.840000044 -0.649999962 -1.650000044
C -0.850000067 3.599999868 0.899999967
C -2.050000002 4.249999893 0.250000005
C -0.200000010 4.449999745 2.000000039
H -1.200000124 3.000000058 1.759999989
H -2.560000029 4.900000423 0.970000029
H -2.760000134 3.499999941 -0.129999996
H -1.749999971 4.869999738 -0.610000017
H 0.680000016 4.000000077 2.469999995
H -0.899999967 4.610000031 2.829999881
H 0.139999998 5.429999729 1.619999991
C -1.150000035 2.900000132 -1.299999924
C -2.539999994 3.400000268 -1.749999971
C -0.519999982 3.250000126 -2.630000280
H -1.159999927 1.799999934 -1.240000069
H -2.539999994 4.500000213 -1.860000041
H -3.270000162 3.099999984 -0.980000047
H -2.849999916 2.970000131 -2.710000171
H 0.509999996 2.869999952 -2.640000172
H -1.100000072 2.880000096 -3.490000050
H -0.500000010 4.349999819 -2.740000098
51
step=1 E=-2802.672010571288 Eh
Co 0.0000000000 0.0000000000 0.0000000000
P 2.1594320928 0.0000000000 0.0495282617
P 0.0000000000 2.1799999992 -0.0500000020
O -1.8800000031 0.0000000000 0.0500000020
O 0.0000000000 -1.8800000031 -0.0500000020
C -2.7500000039 -0.8500000022 0.0500000020
C -2.0000000005 -2.0000000005 0.0000000000
C -0.8500000022 -2.7500000039 -0.0500000020
C -4.2000000036 -0.6499999995 0.0999999987
C -0.6499999995 -4.2000000036 -0.0999999987
H -2.2499999999 -2.2499999999 1.0499999996
H -4.6500000004 -1.2000000003 0.8999999989
H -4.4999999997 0.4000000001 0.2499999994
H -4.7000000024 -1.0000000029 -0.8249999985
H -1.2000000003 -4.6500000004 -0.8999999989
H 0.4000000001 -4.4999999997 -0.2499999994
H -1.0000000029 -4.7000000024 0.8249999985
C 2.0500000025 1.5499999984 0.8500000022
C 1.2500000023 2.2499999999 -0.2499999994
H 3.0500000000 1.9000000018 1.1700000023
H 1.5200000003 1.3899999983 1.8000000031
H 1.7899999984 3.1399999994 0.0999999987
H 1.2700000010 2.1300000025 -1.3400000016
C 3.6199999995 -0.8500000022 0.8500000022
H 3.8500000002 -0.4299999981 1.8400000004
H 3.2999999994 -1.9000000018 1.0200000016
H 4.4800000010 -0.8800000002 0.1600000000
C 2.8999999993 -1.1000000016 -1.2999999990
H 3.0200000020 -2.1899999985 -1.1700000023
H 2.1400000018 -0.8899999995 -2.0700000011
H 3.8400000009 -0.6499999995 -1.6500000024
C -0.8500000022 3.6000000008 0.8999999989
C -2.0500000025 4.2500000003 0.2499999994
C -0.2000000027 4.4500000030 2.0000000005
H -1.2000000003 3.0000000033 1.7600000004
H -2.5600000006 4.8999999998 0.9699999996
H -2.7600000033 3.5000000021 -0.1300000020
H -1.7500000011 4.8700000018 -0.6100000021
H 0.6800000028 4.0000000009 2.4700000012
H -0.8999999989 4.6100000030 2.8300000040
H 0.1400000014 5.4300000019 1.6199999990
C -1.1499999983 2.8999999993 -1.2999999990
C -2.5400000019 3.4000000034 -1.7500000011
C -0.5200000028 3.2500000027 -2.6300000013
H -1.1600000029 1.8000000031 -1.2400000029
H -2.5400000019 4.4999999997 -1.8599999991
H -3.2700000014 3.1000000020 -0.9799999989
H -2.8500000026 2.9700000000 -2.7100000013
H 0.5099999981 2.8700000013 -2.6400000006
H -1.1000000016 2.8800000007 -3.4900000028
H -0.4999999988 4.3500000043 -2.7399999993
51
step=2 E=-2802.857194608695 Eh
Co 0.0004125471 0.0151471822 -0.0077574770
P 2.1601693751 0.0163998526 0.0442934659
P -0.0349609683 2.1842804228 -0.0602621034
O -1.8824025389 0.0189467664 0.0400975881
O 0.0076508411 -1.8678715843 -0.0504546853
C -2.7555202025 -0.8426604384 0.0423362988
C -2.0157252784 -2.0057427093 -0.0016645070
C -0.8517817998 -2.7430143430 -0.0479061727
C -4.2059665057 -0.6376626751 0.0897938549
C -0.6437080089 -4.1931563543 -0.0924827919
H -2.2672144393 -2.2584972620 1.0504793028
H -4.6596609685 -1.1843024835 0.8935895440
H -4.5012828873 0.4146532139 0.2347694444
H -4.7052468249 -0.9903220590 -0.8347246204
H -1.1920371429 -4.6495052770 -0.8934909033
H 0.4088049794 -4.4864041297 -0.2401060707
H -0.9921050049 -4.6915798024 0.8342375091
C 2.0581656987 1.5729186967 0.8406086252
C 1.2634838084 2.2731019099 -0.2678840774
H 3.0579276919 1.9250889030 1.1611723278
H 1.5260859213 1.4148644110 1.7903069978
H 1.8057779936 3.1672603626 0.0763857163
H 1.2884898633 2.1473927011 -1.3587084811
C 3.6166498809 -0.8342599640 0.8579275379
H 3.8446493595 -0.4098683028 1.8474351526
H 3.2941815302 -1.8825769835 1.0328344627
H 4.4798984902 -0.8699208825 0.1728202994
C 2.8977218771 -1.0884760180 -1.3068372877
H 3.0131332049 -2.1778588280 -1.1693170694
H 2.1399814692 -0.8820433288 -2.0810455459
H 3.8395543030 -0.6434857386 -1.6597395149
C -0.8987231589 3.6003839103 0.9107678873
C -2.1118481795 4.3563804387 0.4391571376
C -0.1565330899 4.4011725965 1.9920860531
H -1.2179761433 2.9682076501 1.7614373928
H -2.5075275446 4.9726332992 1.2560557291
H -2.8957515999 3.6777062605 0.0863058167
H -1.8630629495 5.0268075505 -0.3980562470
H 0.7418942351 3.9153954037 2.3885159508
H -0.7969102396 4.5505229822 2.8715472013
H 0.1821690506 5.3856955262 1.6210558192
C -1.1952689754 2.8626836678 -1.3462073020
C -2.5669103033 3.3360869410 -1.8928572423
C -0.4706060379 3.1847525433 -2.6391683337
H -1.1961795831 1.7609172324 -1.2703696566
H -2.5767575243 4.4325506331 -2.0275983638
H -3.3478730308 3.0429301416 -1.1731131197
H -2.8060336403 2.8802339512 -2.8624906621
H 0.5614878899 2.8138844860 -2.5690483873
H -0.9840935403 2.7886327746 -3.5295686314
H -0.4491443802 4.2821507708 -2.7756481999
51
step=3 E=-2803.140028362889 Eh
Co 0.0958548018 0.0617282744 -0.0180730297
P 2.2466979614 -0.0204140476 0.0491463896
P -0.0538418298 2.2070416176 -0.0652999843
O -1.7998733563 0.1466859241 0.0126403011
O 0.0903448682 -1.8357781365 -0.0465734619
C -2.7068982885 -0.7537209299 0.0134795111
C -2.0732198167 -2.0120024125 -0.0099475779
C -0.8490095648 -2.7017617454 -0.0451575592
C -4.1516764496 -0.4769672260 0.0449898538
C -0.6383194295 -4.1578660392 -0.0821389302
H -2.3465303437 -2.2966564031 1.0463811739
H -4.6448510627 -1.0009208017 0.8611340428
H -4.3867795662 0.5938770333 0.1754392513
H -4.6543136584 -0.8167971458 -0.8833352996
H -1.1898555804 -4.6204938706 -0.8970904630
H 0.4200044397 -4.4404454573 -0.2196154303
H -0.9937800584 -4.6518326298 0.8458424708
C 2.2356754087 1.5580227169 0.8434007020
C 1.4878267011 2.3077924406 -0.2993553269
H 3.2473542160 1.8797157317 1.1706592944
H 1.6861311639 1.4169356091 1.7888770091
H 2.0702381732 3.1975290489 0.0352310357
H 1.5367449243 2.1701618936 -1.3957515641
C 3.6441074160 -0.9404320157 0.9257429633
H 3.8763465334 -0.5154532082 1.9191471781
H 3.2693292220 -1.9687243425 1.1114215705
H 4.5229783274 -1.0292584095 0.2687889549
C 2.9316567881 -1.1559335783 -1.3264180612
H 2.9809671383 -2.2449326537 -1.1583020907
H 2.1984348153 -0.9349719193 -2.1256390715
H 3.8995838023 -0.7692206179 -1.6858600421
C -0.9840616776 3.5851316112 0.9131793872
C -2.2315321242 4.2945047144 0.4210278414
C -0.2531841520 4.4086752786 2.0058920206
H -1.3025258707 2.9234647733 1.7512871196
H -2.6616594469 4.8898725657 1.2410111235
H -2.9920446187 3.5963385204 0.0482365957
H -2.0029420191 4.9828076270 -0.4112254312
H 0.6638353018 3.9376074278 2.3954970005
H -0.8962671552 4.5399146798 2.8908961416
H 0.0606876592 5.4074623579 1.6417060104
C -1.2469288522 2.8665347486 -1.3752283222
C -2.6828263872 3.2852282304 -1.7938603095
C -0.5352523829 3.2173845771 -2.6979134809
H -1.2396659468 1.7495131139 -1.3352445837
H -2.7509523321 4.3821665878 -1.9091767263
H -3.3946327000 2.9569154625 -1.0164352468
H -2.9776742490 2.8248821541 -2.7489906659
H 0.5133704748 2.8739639610 -2.6805139164
H -1.0557128742 2.8200725204 -3.5860681372
H -0.5343684479 4.3179031108 -2.8243608162
51
step=4 E=-2803.336265043602 Eh
Co 0.0667733535 0.0953613520 -0.0256050339
P 2.2085138815 0.0236738674 0.0439064591
P -0.0697806431 2.2574066293 -0.0812060058
O -1.8458409418 0.1628152904 0.0001335892
O 0.0760672851 -1.8126548435 -0.0417229005
C -2.7066806872 -0.7978882059 0.0125293765
C -2.2273829170 -2.1387828454 0.0211231513
C -0.9032314996 -2.6507037716 -0.0315563445
C -4.1466558474 -0.4749371773 0.0279242791
C -0.6143663254 -4.0979210803 -0.0858559551
H -2.5409294081 -2.5561396973 1.0316527297
H -4.6644652923 -0.9780145916 0.8597150402
H -4.3326758726 0.6095049472 0.1340694091
H -4.6440550126 -0.8217745417 -0.9012559916
H -1.1607194816 -4.5796618964 -0.9099888673
H 0.4612809927 -4.3039068740 -0.2343020929
H -0.9350831872 -4.6157170528 0.8433552864
C 2.2551199032 1.6326362197 0.8159388339
C 1.5297656840 2.4259060668 -0.3333960622
H 3.2692857303 1.9631062114 1.1333612963
H 1.6911993389 1.4911580992 1.7567598557
H 2.1176806519 3.3327480096 -0.0295694683
H 1.6055496264 2.2752403907 -1.4277778119
C 3.5424619028 -0.9112072097 1.0304637002
H 3.7479337095 -0.4632272606 2.0231707528
H 3.1473276770 -1.9283862295 1.2355161452
H 4.4504683549 -1.0302218813 0.4199733283
C 2.8777808498 -1.0818847825 -1.3792957130
H 2.8968291840 -2.1613353951 -1.1582974028
H 2.1682307638 -0.8876236228 -2.2105086553
H 3.8572154439 -0.7192824644 -1.7427085749
C -0.9734293472 3.5926878326 0.9894682676
C -2.2604614605 4.3562985263 0.6258870084
C -0.1284674993 4.3523634952 2.0652133845
H -1.2782241349 2.8809437034 1.7989596064
H -2.5981618924 4.8998161264 1.5249732933
H -3.0901961716 3.7220633369 0.2707481348
H -2.0907536189 5.1030512839 -0.1759787116
H 0.8036417580 3.8270880614 2.3517399400
H -0.7007865038 4.4630326728 3.0044344324
H 0.1886930661 5.3616402750 1.7265917061
C -1.2193904114 2.8188110683 -1.5209298236
C -2.6848148923 3.1352737988 -1.8743351889
C -0.4659756555 3.1554735116 -2.8433403177
H -1.2236988816 1.6937279942 -1.4954328301
H -2.8326430876 4.2226458668 -2.0138026547
H -3.3570208589 2.7844041038 -1.0721404654
H -2.9598322502 2.6211462184 -2.8105621124
H 0.5964111616 2.8482805261 -2.8268364426
H -0.9563867031 2.7186944212 -3.7340095698
H -0.4841963055 4.2537754904 -2.9985860691
51
step=5 E=-2803.502417581868 Eh
Co 0.0145658811 0.1252551140 -0.0107806592
P 2.1583725265 0.0751316607 0.0225330071
P -0.0888321722 2.3199312395 -0.0973742419
O -1.9078000870 0.1476190836 0.0414237733
O 0.0330140751 -1.7797559081 -0.0074940668
C -2.6861935052 -0.8906944084 0.1025784767
C -2.4305445315 -2.3037098627 0.1651173682
C -1.0125691498 -2.5466934420 0.0453356000
C -4.1346217943 -0.5156125131 0.0651449661
C -0.6367065091 -3.9901176910 -0.1032639972
H -2.8859871475 -3.0425068297 0.8605254128
H -4.6840782302 -0.9869336695 0.9083679124
H -4.2769338085 0.5800133941 0.1203131978
H -4.6091152252 -0.8953693862 -0.8624216773
H -1.2089931042 -4.4592820169 -0.9284549833
H 0.4443002827 -4.1067563527 -0.3044586611
H -0.8884572417 -4.5632981180 0.8150718904
C 2.3022603291 1.7501863033 0.7126833282
C 1.5887897219 2.6206055249 -0.4006349395
H 3.3226184128 2.0939263209 0.9884943341
H 1.7285073351 1.6203209424 1.6527028502
H 2.1748260436 3.5476728359 -0.1689756808
H 1.6959599359 2.4310483626 -1.4882190900
C 3.3060686926 -0.8840722524 1.1835199186
H 3.4434311276 -0.3907607217 2.1659568365
H 2.8587635036 -1.8793273289 1.3942879421
H 4.2657679054 -1.0473012808 0.6621530406
C 2.8285513161 -0.8766608695 -1.4749649527
H 2.8124699232 -1.9408286211 -1.1881092245
H 2.1581938136 -0.6985625163 -2.3416472637
H 3.8301166580 -0.5223577767 -1.7939889559
C -0.9110986064 3.5381286098 1.1247902881
C -2.1947631231 4.2570603965 0.7372552239
C 0.0245141468 4.3103969038 2.1160426959
H -1.2301170862 2.7820838121 1.8927395726
H -2.5542293434 4.7865380847 1.6411814281
H -2.9873340051 3.5796918122 0.3836559377
H -2.0334482160 5.0113671938 -0.0620536210
H 0.9729553676 3.7681217388 2.3156596603
H -0.4787751526 4.4362899057 3.0945203199
H 0.3149909151 5.3175120601 1.7458609306
C -1.1520180550 2.7381599992 -1.6740175769
C -2.6582491753 2.9727476505 -1.8756153851
C -0.3543827840 3.1261797849 -2.9485724516
H -1.1613798686 1.6092134286 -1.7488031124
H -2.9037190175 4.0484344525 -1.9885681960
H -3.2721804768 2.5729584849 -1.0489666469
H -2.9510118034 2.4463941599 -2.8035049198
H 0.7205917967 2.8532579688 -2.9250883829
H -0.8098293080 2.6684411178 -3.8487582224
H -0.3928349137 4.2270802101 -3.0978460676
51
step=6 E=-2803.589922003302 Eh
Co -0.0436703357 0.0994686362 -0.0415125307
P 2.1074863693 0.0894964306 0.0189235359
P -0.1010333293 2.3449557450 -0.1649263913
O -1.9736237462 0.1082551954 0.0094330893
O 0.0482372860 -1.8072046243 -0.0224704370
C -2.7753765808 -0.9112442157 0.0675507529
C -2.3422784738 -2.2653714180 0.0233684245
C -0.9522615337 -2.6326790853 0.0314873599
C -4.2738502259 -0.6103752310 0.0817598664
C -0.5847798182 -4.1200009295 0.0614508541
H -2.9946461019 -2.8471524314 0.6767086833
H -4.7758969975 -1.1736687840 0.9056576816
H -4.4701984335 0.4714130056 0.2018739622
H -4.7383388187 -0.9674961392 -0.8602486990
H -1.1087403416 -4.6660851742 -0.7563207995
H 0.5078603008 -4.2584238078 -0.0325601035
H -0.9223787773 -4.5864948240 1.0128064603
C 2.3376905126 1.8446316197 0.5905017915
C 1.6354511951 2.8078692643 -0.4534453904
H 3.3619648130 2.1983966180 0.8330648708
H 1.7472914936 1.7504400577 1.5257045905
H 2.1892935134 3.7601660897 -0.2777224068
H 1.8206909474 2.5516775092 -1.5160927484
C 2.8876377529 -0.8638552807 1.4262193553
H 2.8676360278 -0.2959668074 2.3762434181
H 2.3540451272 -1.8227213373 1.5969170268
H 3.9313297725 -1.0868799374 1.1303163964
C 2.7918307087 -0.5252976154 -1.5982012630
H 2.7671260619 -1.6068846506 -1.3805237051
H 2.1602371076 -0.2782175704 -2.4751562891
H 3.8140117442 -0.1513942514 -1.8194235031
C -0.8072323044 3.3858476486 1.2396998621
C -2.0748030772 4.1444323754 0.8592338419
C 0.2340756536 4.1358438186 2.1209724849
H -1.1690118491 2.5758026069 1.9287136638
H -2.4313689173 4.6569336806 1.7774329846
H -2.8840226794 3.4884383861 0.4966036424
H -1.9007593855 4.9247868699 0.0860967832
H 1.1786032288 3.5597085447 2.2230879563
H -0.1846403413 4.2833449044 3.1368476621
H 0.5045303009 5.1358722478 1.7180717377
C -0.9841508773 2.6417349403 -1.8836310907
C -2.4873451396 2.8868097331 -1.7659984978
C -0.3921267417 3.2080299068 -3.1941473687
H -0.9814819715 1.5481958489 -2.1797861222
H -2.7554415278 3.9639958962 -1.7162070000
H -2.9488618993 2.3893658779 -0.8949242008
H -2.9419339261 2.4585964953 -2.6822012368
H 0.6840056576 3.0130576496 -3.3697248856
H -0.9433086976 2.7742985267 -4.0530953746
H -0.5098168720 4.3133055051 -3.2515060258
51
step=7 E=-2803.601172885528 Eh
Co -0.1243093420 0.0552489382 -0.0291789095
P 2.0414188794 0.1079412001 -0.0434810943
P -0.1958062422 2.3257459129 -0.2315044520
O -2.0384460613 0.0532397092 0.0948761046
O 0.0088899783 -1.8456601419 0.0303306643
C -2.8056201438 -0.9834588744 0.2080983331
C -2.3369436200 -2.3271805208 0.1905556408
C -0.9586223290 -2.7011797592 0.1407164057
C -4.3066198640 -0.7139606513 0.2748699859
C -0.5697649025 -4.1797001373 0.1585979703
H -2.9854918871 -3.1177059409 0.5847366164
H -4.7682646399 -1.2678363402 1.1249957111
H -4.5106037926 0.3666197769 0.3808332157
H -4.7901752474 -1.0957014845 -0.6476911673
H -1.1201459433 -4.7314252085 -0.6354558344
H 0.5201621722 -4.2939594270 0.0182768464
H -0.8598417926 -4.6416691903 1.1268221957
C 2.3571362249 1.8824796798 0.4074516125
C 1.5678532034 2.8193448878 -0.5709399129
H 3.4016258618 2.2276602843 0.5633186428
H 1.8378433885 1.8634893203 1.3870728798
H 2.1033043198 3.7851981884 -0.4618663134
H 1.7477807370 2.4892433750 -1.6149732444
C 2.7846837363 -0.9044658080 1.3021981547
H 2.7560231772 -0.3390416932 2.2521889126
H 2.2290311164 -1.8549645159 1.4225585855
H 3.8397756305 -1.1348403732 1.0468518650
C 2.7524901413 -0.4115825220 -1.6517740312
H 2.7352843687 -1.5132890176 -1.5344980534
H 2.1103445289 -0.1228623193 -2.5040003206
H 3.7844604617 -0.0484640450 -1.8360937936
C -0.8544724334 3.3355265888 1.2150588988
C -2.1110403836 4.1469957469 0.8092974650
C 0.2061546823 4.1166989509 2.0123669583
H -1.2281589972 2.5246100940 1.8864151047
H -2.4709908288 4.6959157677 1.7052435137
H -2.9511061712 3.5238086978 0.4471873709
H -1.9047072612 4.9088990182 0.0268196392
H 1.1521105057 3.5535936965 2.1273890212
H -0.1929692566 4.3226504628 3.0257421310
H 0.4503896622 5.0916950972 1.5412756606
C -1.0921323180 2.6105737737 -1.9137925276
C -2.5805161712 2.9048907518 -2.0445814214
C 0.0042600928 3.3757167004 -2.6763786553
H -1.1023373134 1.5481672161 -2.2844320966
H -2.8257820195 3.9760824791 -1.8955074757
H -3.1657273277 2.3048020723 -1.3270338213
H -2.9050185363 2.6274511124 -3.0685294631
H 1.0411358668 3.0577432578 -2.4518555121
H -0.1583605534 3.2029909304 -3.7593017137
H -0.0274174820 4.4742337156 -2.5038477329
51
step=8 E=-2803.634535247742 Eh
Co -0.1033187583 0.0486870744 -0.0220748766
P 2.0654832391 0.0926895869 0.0083652062
P -0.1650637996 2.3209126867 -0.2229872202
O -2.0181141734 0.0585443350 0.0628895059
O 0.0184675700 -1.8522838199 0.0363710252
C -2.7871775531 -0.9767039773 0.1585752122
C -2.3342913782 -2.3242495048 0.1503961352
C -0.9590505758 -2.6966298120 0.1263815448
C -4.2835624727 -0.6976392338 0.1945518915
C -0.5781817219 -4.1725162898 0.1483374159
H -2.9927688614 -3.1203196548 0.5219730407
H -4.7661810537 -1.2479634504 1.0334032780
H -4.4813501251 0.3842477304 0.2975086233
H -4.7505251674 -1.0746609619 -0.7383781103
H -1.1146635446 -4.7193357275 -0.6568648277
H 0.5136694826 -4.2909229286 0.0285977815
H -0.8888385202 -4.6348923577 1.1096237381
C 2.3805475076 1.8625520493 0.4689782213
C 1.6134029553 2.8005794693 -0.5215400902
H 3.4239327968 2.2006184657 0.6454675058
H 1.8438894919 1.8468938954 1.4394531717
H 2.1511813362 3.7628647111 -0.4001041229
H 1.8146900633 2.4675080096 -1.5576532638
C 2.7797583929 -0.9275912488 1.3607483992
H 2.7336999641 -0.3649500283 2.3116617138
H 2.2165646148 -1.8752665357 1.4634774255
H 3.8392775204 -1.1625813648 1.1284512884
C 2.8107629459 -0.4263924230 -1.5839424480
H 2.7907929539 -1.5300535007 -1.4809322472
H 2.1859104655 -0.1301726985 -2.4460268707
H 3.8476597931 -0.0664561274 -1.7429340629
C -0.8435536953 3.3408924977 1.2141979213
C -2.0857631960 4.1852132846 0.8426532840
C 0.2227537865 4.1135481307 2.0082152468
H -1.2270760584 2.5292489407 1.8771816914
H -2.4226889358 4.7247076893 1.7531609354
H -2.9411718525 3.5853901135 0.4825326538
H -1.8727492723 4.9567292300 0.0726975926
H 1.1654870191 3.5461905088 2.1218085190
H -0.1721635711 4.3217972025 3.0226108500
H 0.4707775998 5.0867527398 1.5361097067
C -1.0502274181 2.6018005432 -1.9268916228
C -2.5465148154 2.8958049999 -1.8988073279
C -0.1962280543 3.3941879184 -2.9332164286
H -1.0443122939 1.5283657756 -2.2581363972
H -2.7762467983 3.9705063533 -1.7552088030
H -3.0464954374 2.3169367748 -1.1036862916
H -2.9844660180 2.5895532165 -2.8710295541
H 0.8832396553 3.1785849184 -2.9114400818
H -0.5517687933 3.1350667523 -3.9512865019
H -0.2947398394 4.4956251756 -2.8153198650
51
step=9 E=-2803.648719661734 Eh
Co -0.1399423065 0.0013001768 -0.0101897033
P 2.0423963511 0.1099892057 0.0372414002
P -0.2073627906 2.2877563440 -0.3076929581
O -2.0426714157 0.0354201860 0.0577252063
O -0.0033568459 -1.8879020734 0.0998816344
C -2.8022812403 -1.0028021054 0.1678825744
C -2.3621313734 -2.3479329660 0.2095261255
C -0.9946049930 -2.7124095401 0.2013581050
C -4.2863656771 -0.7177899247 0.2003329807
C -0.6174851067 -4.1723295773 0.2820966435
H -3.0586513725 -3.2019464674 0.2050454292
H -4.7765776446 -1.2483583479 1.0413837741
H -4.4641302970 0.3676902821 0.2932838660
H -4.7527404070 -1.0900152606 -0.7351177264
H -1.1359170285 -4.7449117791 -0.5126316617
H 0.4757960924 -4.2865206280 0.1770948476
H -0.9373823177 -4.5973536210 1.2560568638
C 2.4596872483 1.8565875841 0.4066777121
C 1.6230726285 2.7511011277 -0.5530694433
H 3.5258671426 2.1491792684 0.5119432574
H 2.0121168009 1.9562171457 1.4179153323
H 2.1288228185 3.7298522611 -0.4591775132
H 1.8714341394 2.3734975401 -1.5664642037
C 2.7623009498 -0.9969035834 1.2838065345
H 2.6889186831 -0.4920663719 2.2655796856
H 2.1846111625 -1.9381101461 1.2848159946
H 3.8331650264 -1.2229246356 1.0945976588
C 2.9525630253 -0.4014845268 -1.4582883973
H 2.9448658431 -1.5132651771 -1.4810122885
H 2.4045292922 -0.0664224404 -2.3560342246
H 4.0074992434 -0.0657242133 -1.4840776777
C -0.8776936935 3.2865578611 1.1683023999
C -2.0667493366 4.2359278297 0.8355832039
C 0.2002435712 4.0635608201 1.9172139887
H -1.2788930107 2.4718120235 1.8052691375
H -2.3626989712 4.7796349397 1.7572737248
H -2.9697852090 3.7070463872 0.4746936198
H -1.7970162854 5.0074596965 0.0859990293
H 1.1373653943 3.5052771712 2.0782119351
H -0.1925810392 4.3383517257 2.9166726297
H 0.4466963429 5.0048751668 1.3869797490
C -1.0710656814 2.5647264880 -1.9986695665
C -2.5710477340 2.8307843047 -1.9161027642
C -0.2818252474 3.5931091132 -2.8103633309
H -0.9680526587 1.5566439886 -2.4564452573
H -2.8093153345 3.8690428209 -1.6236225176
H -3.0254327392 2.1223908286 -1.1992112895
H -3.0426409673 2.6614183820 -2.9060437055
H 0.8102857673 3.4293127813 -2.8015268647
H -0.6027750038 3.5173948874 -3.8704252525
H -0.4729085578 4.6359948423 -2.4832255833
51
step=10 E=-2803.656718756060 Eh
Co -0.1198593596 -0.0134067023 -0.0002251413
P 2.0745071071 0.0648466841 0.0305814767
P -0.1834071885 2.2530172531 -0.3218494099
O -2.0235350575 0.0564546327 0.0747138487
O 0.0218336703 -1.8999460685 0.1235432266
C -2.8045338885 -0.9659908344 0.1865811650
C -2.3286353352 -2.2844578229 0.2273361499
C -0.9892862150 -2.6996945829 0.2152411778
C -4.2807091778 -0.6884904921 0.2722255408
C -0.6556603048 -4.1591112703 0.3355723360
H -3.1943095388 -2.9723989013 0.2120053260
H -4.7405181582 -1.2291648167 1.1205211580
H -4.4611302343 0.3951360845 0.3882818126
H -4.7864608238 -1.0406089279 -0.6510619527
H -1.1803900262 -4.7428495891 -0.4448761940
H 0.4332479320 -4.3133355959 0.2345249431
H -0.9883621987 -4.5528113036 1.3175862717
C 2.4868373702 1.8165376402 0.3894447027
C 1.6391122818 2.7225180603 -0.5593125455
H 3.5639559091 2.0724135244 0.4478369459
H 2.1095499774 1.9553176045 1.4282408009
H 2.0983953974 3.7243959682 -0.4401887159
H 1.8768405728 2.4108317173 -1.6030984646
C 2.8411617751 -0.9848350426 1.3255392260
H 2.7476667930 -0.4920256310 2.3146313981
H 2.2772432765 -1.9358533958 1.3364378634
H 3.9152947086 -1.1881293077 1.1434448952
C 2.9256437854 -0.4256712493 -1.5353678940
H 2.9293793371 -1.5311078095 -1.6314281155
H 2.3769263408 -0.0431761332 -2.4182100696
H 3.9784392388 -0.0838233088 -1.5550927907
C -0.9269412608 3.2297252544 1.1477446787
C -2.0951215426 4.1776854235 0.8056462312
C 0.1051995710 3.9996102997 1.9808829596
H -1.3410074383 2.3986960648 1.7544993565
H -2.4131881370 4.6869438613 1.7382850199
H -2.9784279034 3.6510557431 0.4015762492
H -1.7883332665 4.9662307932 0.0896415705
H 1.0278121592 3.4435045770 2.2230845813
H -0.3521677063 4.2823461374 2.9506967926
H 0.3972169784 4.9387516367 1.4703414484
C -0.9752592321 2.5910844746 -2.0172494621
C -2.4944931775 2.7868253236 -1.9835100901
C -0.3046052650 3.6931730482 -2.8401198223
H -0.7643585791 1.6174412927 -2.5035487497
H -2.7790739198 3.8082051891 -1.6829253661
H -2.9708464607 2.0486937813 -1.3065911923
H -2.9049741820 2.6240445229 -3.0007817326
H 0.8032901425 3.6110145567 -2.8487543709
H -0.6398077856 3.6388822116 -3.8980711363
H -0.5858298307 4.6962742398 -2.4635010642
51
step=11 E=-2803.665301484374 Eh
Co -0.1206711875 -0.0004862430 0.0090419502
P 2.0782023589 0.0401622863 0.0334563524
P -0.1490894247 2.2326341117 -0.3349243232
O -2.0158921725 0.0782307468 0.0855220700
O -0.0140035287 -1.8858300290 0.1531073656
C -2.7955884146 -0.9460315156 0.2069796844
C -2.3794973615 -2.2877910895 0.2687810140
C -1.0323042520 -2.6796045847 0.2309085731
C -4.2626487909 -0.6280434170 0.3156548345
C -0.6925729635 -4.1399682221 0.3574641771
H -3.1172981148 -3.0961867212 0.3397803321
H -4.7219531303 -1.1560276094 1.1711353495
H -4.4191874307 0.4594021870 0.4370288117
H -4.8037009567 -0.9582502948 -0.5963511052
H -1.2201148201 -4.7393348199 -0.4092577890
H 0.3945434772 -4.3023301905 0.2454168631
H -1.0137277449 -4.5304957674 1.3443604248
C 2.4835347310 1.7991553170 0.3848651961
C 1.6564166367 2.7220709425 -0.5561656847
H 3.5687117397 2.0242242060 0.3978310412
H 2.1574516753 1.9580045137 1.4392196569
H 2.0390901734 3.7514748686 -0.3913854091
H 1.8876330985 2.4839441065 -1.6214747820
C 2.8723452609 -0.9601710143 1.3669605932
H 2.7551643103 -0.4791042707 2.3598214533
H 2.3343466362 -1.9289427490 1.3891336357
H 3.9492088404 -1.1292865848 1.1761147917
C 2.8636714558 -0.4239468504 -1.5819636192
H 2.8485104874 -1.5234060136 -1.7090846064
H 2.3225659767 0.0123779403 -2.4470845954
H 3.9186071588 -0.0851106496 -1.5938347633
C -0.9296727125 3.1911561590 1.1166095930
C -2.0726288178 4.1337570304 0.7395633600
C 0.0884172368 3.9261370075 2.0093923771
H -1.3616123314 2.3564970692 1.7089981094
H -2.4183698555 4.6327119433 1.6669279675
H -2.9337642100 3.6013752676 0.3024839524
H -1.7336203223 4.9234568470 0.0396102074
H 0.9729885235 3.3285457281 2.3046413693
H -0.4075681154 4.2280736342 2.9541237617
H 0.4538742575 4.8517828939 1.5204740594
C -0.9091793405 2.6304259422 -2.0171922596
C -2.4459573401 2.6696322608 -2.0714534168
C -0.3451004391 3.8249938114 -2.7991641388
H -0.5828266141 1.6986931051 -2.5263850654
H -2.8367907329 3.6518063486 -1.7612611452
H -2.9196500843 1.8741441472 -1.4584819931
H -2.7592411701 2.5113238026 -3.1229960937
H 0.7658460920 3.8536316473 -2.8088556320
H -0.6811082209 3.7917856496 -3.8566576615
H -0.7220713521 4.7746171527 -2.3710267271
51
step=12 E=-2803.674504054658 Eh
Co -0.1478582697 0.0208400750 0.0243163600
P 2.0515909005 0.0667191567 0.0448810303
P -0.1174565810 2.2143629550 -0.3669958282
O -2.0408266701 0.1189932688 0.1020897252
O -0.0570853966 -1.8663165567 0.2097687932
C -2.8280668621 -0.9020804773 0.2348850462
C -2.4164358905 -2.2467094876 0.3132633492
C -1.0754336849 -2.6648237262 0.2810423908
C -4.2984398138 -0.5719083763 0.3282515388
C -0.7495815182 -4.1362774039 0.3963678789
H -3.1650663779 -3.0419199307 0.3910056706
H -4.7721170280 -1.1047885483 1.1757528659
H -4.4496163214 0.5162205916 0.4548379444
H -4.8361716021 -0.8881445350 -0.5912472987
H -1.2897102910 -4.7342528724 -0.3666391019
H 0.3350996812 -4.3125206003 0.2771459385
H -1.0685233432 -4.5255251997 1.3849937675
C 2.5117283920 1.8200362266 0.3625305987
C 1.6906586456 2.7427335848 -0.5445306718
H 3.6050277038 2.0086808379 0.2937478117
H 2.2599238679 2.0097905576 1.4298974747
H 1.8962105169 3.8143460946 -0.3359169399
H 1.9513880825 2.5720119062 -1.6120269792
C 2.8771150021 -0.9477758351 1.3392821106
H 2.7263333929 -0.5057747984 2.3439782851
H 2.3841210338 -1.9423802308 1.3296557270
H 3.9599443465 -1.0574625350 1.1372416698
C 2.8707395908 -0.3834408758 -1.5425264233
H 2.8115525603 -1.4783069592 -1.6890009576
H 2.3901230151 0.1142080181 -2.4089749115
H 3.9370590955 -0.0775350897 -1.4959571344
C -0.8960376096 3.1463174389 1.0840500124
C -2.0005166670 4.1200294452 0.6691013683
C 0.1442943922 3.8197186145 2.0011092624
H -1.3651470982 2.3145023268 1.6548723075
H -2.3678965522 4.6305241654 1.5822263848
H -2.8604917253 3.6086941874 0.2040334443
H -1.6231571286 4.9028395166 -0.0201937488
H 0.9583210764 3.1434675251 2.3374598650
H -0.3636277875 4.1787700900 2.9196434303
H 0.6113148851 4.7024443977 1.5169856750
C -0.8648184275 2.6448592320 -2.0398952374
C -2.3740494031 2.3771973744 -2.2046555534
C -0.4727735224 4.0197776764 -2.6200880516
H -0.3721529635 1.8169805220 -2.6039508859
H -2.9668845389 3.2349811113 -1.8446828771
H -2.7278455511 1.4556629105 -1.6987509246
H -2.5840918571 2.2668658412 -3.2878543775
H 0.6106985773 4.2388364650 -2.6003692119
H -0.7958390068 4.0716153511 -3.6789985345
H -0.9962004381 4.8346285175 -2.0796324655
51
step=13 E=-2803.677501160415 Eh
Co -0.1588252873 0.0311472638 0.0468931135
P 2.0412996599 0.0844486878 0.0449996762
P -0.1001684296 2.1996099424 -0.3789375626
O -2.0547994286 0.1313440683 0.1522384678
O -0.0755435831 -1.8579945101 0.2646728202
C -2.8514298854 -0.8830020116 0.3025603626
C -2.4406505329 -2.2287090502 0.3718916085
C -1.0968601346 -2.6522966519 0.3359901340
C -4.3223857285 -0.5467060713 0.3806458732
C -0.7759464634 -4.1264235944 0.4200718418
H -3.2095006503 -3.0058058269 0.4767927737
H -4.8117999017 -1.0906928445 1.2137454451
H -4.4657803138 0.5408241512 0.5180279782
H -4.8439573812 -0.8503283993 -0.5521012523
H -1.3361201710 -4.7054176471 -0.3437853052
H 0.3066171669 -4.2999456238 0.2807734281
H -1.0795805449 -4.5280442674 1.4093648300
C 2.5667122610 1.8306616590 0.3448417681
C 1.7106336773 2.7299239850 -0.5275730009
H 3.6587924083 1.9879156586 0.1955600145
H 2.3867991822 2.0292740974 1.4217515198
H 1.7535183601 3.8159738585 -0.3092676059
H 1.9800180983 2.6087397187 -1.5968413589
C 2.9075057113 -0.9512079402 1.2826851870
H 2.7482515585 -0.5404775529 2.2979905965
H 2.4545093208 -1.9629988007 1.2473019370
H 3.9908903077 -1.0132227298 1.0605702217
C 2.8680613141 -0.3915958522 -1.5262465715
H 2.7495122335 -1.4810128266 -1.6818825132
H 2.4238700975 0.1465271581 -2.3853520239
H 3.9469914148 -0.1360187468 -1.4681766792
C -0.9324488344 3.1353958456 1.0499900870
C -2.0098157163 4.1460801041 0.6385609115
C 0.0767577458 3.7574996457 2.0282855202
H -1.4412308678 2.2970409672 1.5749136189
H -2.4172599484 4.6305468632 1.5501946868
H -2.8555529850 3.6626863348 0.1181282432
H -1.6084226885 4.9542710677 -0.0035959428
H 0.8169455964 3.0267719403 2.4115782217
H -0.4714404875 4.1461162855 2.9108669131
H 0.6266935495 4.6119258171 1.5830169365
C -0.7759479212 2.6615473260 -2.0750483547
C -2.2460052572 2.2547361581 -2.2979838708
C -0.5189543840 4.1016411325 -2.5490099783
H -0.1446265062 1.9767232244 -2.6961121658
H -2.9446224727 3.0140114036 -1.8955221893
H -2.4976938539 1.2772171543 -1.8503800114
H -2.4284747601 2.1934713695 -3.3905110765
H 0.5379524114 4.4181732014 -2.4948989398
H -0.8345192005 4.1878842694 -3.6083114402
H -1.1219502934 4.8276365461 -1.9687418737
51
step=14 E=-2803.679067207411 Eh
Co -0.1472661208 0.0263131290 0.0445628566
P 2.0436445654 0.0767795268 0.0505264466
P -0.1111971797 2.2183681050 -0.3832630685
O -2.0453542384 0.1108729652 0.1597349545
O -0.0480147813 -1.8635792993 0.2616121082
C -2.8371701134 -0.9052830756 0.3129291056
C -2.4092714751 -2.2457534897 0.3735197216
C -1.0613872368 -2.6641110714 0.3433876997
C -4.3107910150 -0.5824646194 0.3826054707
C -0.7325364632 -4.1353277763 0.4228825321
H -3.1875646926 -3.0160537814 0.4799257279
H -4.8032274016 -1.1344545327 1.2083509269
H -4.4612797113 0.5033856763 0.5209909807
H -4.8128258936 -0.8923170415 -0.5581344201
H -1.2975203966 -4.7076803298 -0.3408155638
H 0.3506096597 -4.2971304169 0.2779600191
H -1.0280873886 -4.5406916991 1.4132944082
C 2.5733257633 1.8305428866 0.3539105183
C 1.7028678870 2.7301831750 -0.5233435703
H 3.6641945146 1.9825022194 0.2017058744
H 2.3851097344 2.0242790172 1.4302435928
H 1.8338334103 3.8080952363 -0.3074988124
H 1.9680903066 2.5876066921 -1.5905012497
C 2.8695471194 -0.9732111141 1.3001323066
H 2.7038157587 -0.5501017014 2.3093491895
H 2.4079051480 -1.9790158144 1.2601299312
H 3.9568101938 -1.0514643413 1.1007556891
C 2.8385719532 -0.4032200198 -1.5375126226
H 2.6935666232 -1.4908214681 -1.6914058908
H 2.3750733352 0.1363419952 -2.3847805001
H 3.9231578845 -0.1735722180 -1.5134763780
C -0.9393126580 3.1662702634 1.0428950963
C -2.0116551572 4.1943812347 0.6425847818
C 0.0728756672 3.7692023152 2.0247962802
H -1.4606554460 2.3286490651 1.5542377864
H -2.4274737030 4.6604725167 1.5600771649
H -2.8573637821 3.7316778524 0.1001204233
H -1.6056707185 5.0176796134 0.0240711032
H 0.8080403785 3.0289219154 2.3951852836
H -0.4715563960 4.1519933251 2.9117364816
H 0.6261483264 4.6250824526 1.5879387115
C -0.7980504965 2.6668470395 -2.0879942567
C -2.2767352447 2.2963625379 -2.2826017719
C -0.4887950677 4.0929829289 -2.5640785962
H -0.1931060398 1.9642510801 -2.7112460310
H -2.9544391714 3.0665077950 -1.8637167107
H -2.5222527759 1.3270917950 -1.8151290994
H -2.4966172242 2.2289391569 -3.3678190600
H 0.5827934856 4.3592442911 -2.5096631510
H -0.7933245041 4.1814597287 -3.6271338714
H -1.0597575776 4.8542614487 -1.9989993249
51
step=15 E=-2803.680008957181 Eh
Co -0.1497077567 0.0307979752 0.0427420030
P 2.0391809234 0.0823392692 0.0496123825
P -0.1103889601 2.2204825517 -0.3856273685
O -2.0467932000 0.1055951833 0.1729440677
O -0.0444251790 -1.8591555076 0.2629200563
C -2.8340309644 -0.9121397743 0.3323592249
C -2.4019210651 -2.2496903418 0.3929892300
C -1.0534821402 -2.6624607772 0.3519898546
C -4.3058964996 -0.5920823811 0.4178738875
C -0.7200055399 -4.1310804301 0.4387065501
H -3.1747946501 -3.0242143262 0.5019647406
H -4.7934737738 -1.1526309140 1.2395311043
H -4.4552216681 0.4922632817 0.5674284112
H -4.8099089105 -0.8931524706 -0.5245980691
H -1.2950179349 -4.7075227912 -0.3128703064
H 0.3613038219 -4.2905020746 0.2795729086
H -0.9994382531 -4.5310731288 1.4357866206
C 2.5775790380 1.8384161848 0.3546821451
C 1.6989045106 2.7462782095 -0.5104166559
H 3.6641048986 1.9783527156 0.1747459284
H 2.4074239329 2.0314378566 1.4347184175
H 1.8245213523 3.8235100423 -0.2841194263
H 1.9661387504 2.6206183941 -1.5806633284
C 2.8574664969 -0.9700554407 1.3041562494
H 2.6765837689 -0.5558929504 2.3151342269
H 2.4045240637 -1.9784468059 1.2487658943
H 3.9488507970 -1.0388028746 1.1243141203
C 2.8084283429 -0.4004819015 -1.5541442616
H 2.6330064453 -1.4816176828 -1.7221026925
H 2.3460858817 0.1566919567 -2.3915624316
H 3.8991169280 -0.2039900718 -1.5426637051
C -0.9518886576 3.1643749355 1.0334816508
C -1.9799322131 4.2285589790 0.6184588412
C 0.0553665642 3.7214869941 2.0467402940
H -1.5092553705 2.3321664882 1.5143655860
H -2.4220302676 4.6732987060 1.5337767060
H -2.8125788299 3.8052811962 0.0257777556
H -1.5274138840 5.0604433317 0.0447263224
H 0.7534431869 2.9522685745 2.4310193942
H -0.4956915635 4.1198486127 2.9225282113
H 0.6508375654 4.5586522788 1.6299210634
C -0.7797037491 2.6740886436 -2.0941796426
C -2.2414844708 2.2627760441 -2.3174267601
C -0.4960491174 4.1134192384 -2.5463735204
H -0.1454690464 1.9945952385 -2.7100924853
H -2.9458155484 3.0030517389 -1.8908257243
H -2.4635728729 1.2780524073 -1.8662964435
H -2.4502782117 2.2081092837 -3.4051240850
H 0.5728668274 4.3928262880 -2.4718042753
H -0.7832133879 4.2145192619 -3.6138184076
H -1.0893756118 4.8571930096 -1.9821267148
51
step=16 E=-2803.682014228699 Eh
Co -0.1617232645 0.0578048120 0.0265696249
P 2.0170677493 0.1265918021 0.0329330855
P -0.1113273335 2.2375718180 -0.4025704232
O -2.0529136654 0.0978304575 0.2294208124
O -0.0331570894 -1.8318199370 0.2666969409
C -2.8230434938 -0.9238508272 0.4241971442
C -2.3770609045 -2.2538616236 0.4844315698
C -1.0256439461 -2.6448482787 0.3978122911
C -4.2888182812 -0.6113470782 0.5720756824
C -0.6715417721 -4.1055212280 0.5142352469
H -3.1289254550 -3.0399888683 0.6305749196
H -4.7586421048 -1.2095762692 1.3742514280
H -4.4315002347 0.4656146919 0.7708758228
H -4.8081511056 -0.8681272927 -0.3755977512
H -1.2934435111 -4.7080073382 -0.1737773557
H 0.3976125767 -4.2622456495 0.2863014617
H -0.8733836733 -4.4741745042 1.5411769516
C 2.5940811635 1.8816972684 0.3389444907
C 1.6743551790 2.8182040834 -0.4723492545
H 3.6534717272 1.9806611717 0.0372724611
H 2.5050281096 2.0666132651 1.4305348238
H 1.7925274545 3.8869047430 -0.1947996065
H 1.9435353365 2.7687738397 -1.5529741440
C 2.8326953696 -0.9313922631 1.2879152613
H 2.5893708716 -0.5635612112 2.3052582821
H 2.4345342019 -1.9563624266 1.1703162470
H 3.9356771647 -0.9394910011 1.1740594432
C 2.7196652181 -0.4120118732 -1.5891952405
H 2.4092806254 -1.4607802521 -1.7698664644
H 2.2957235850 0.1977333512 -2.4130226537
H 3.8258094853 -0.3612953587 -1.6074285181
C -1.0188683883 3.1620061975 0.9813449744
C -1.8074327478 4.4082706222 0.5719007191
C -0.0826154025 3.4346494693 2.1650049945
H -1.7461082003 2.3747280654 1.2756651062
H -2.3996603878 4.7389280083 1.4491549733
H -2.5186244510 4.2225968182 -0.2552176567
H -1.1480900784 5.2518655008 0.2863401999
H 0.3998240956 2.5149122615 2.5562504577
H -0.6618316954 3.8726457594 3.0030889921
H 0.7112560829 4.1645631648 1.9084595789
C -0.7018551588 2.6924777946 -2.1328101189
C -2.0918764909 2.1324278393 -2.4403846890
C -0.5052622393 4.1585993059 -2.5452493927
H 0.0368632757 2.0972462109 -2.7110686782
H -2.8877757419 2.7569288153 -1.9918238096
H -2.2215253261 1.1054198805 -2.0368422263
H -2.2694814894 2.1128705057 -3.5334463595
H 0.5473843480 4.4896369884 -2.3997418919
H -0.7238077441 4.2721958883 -3.6292975574
H -1.1784194909 4.8525844215 -2.0134601307
51
step=17 E=-2803.683299072376 Eh
Co -0.1578739937 0.0570352266 0.0175751630
P 2.0264045896 0.1274052157 0.0296685621
P -0.1161303514 2.2368470619 -0.4092142085
O -2.0480858744 0.1021104979 0.2246220424
O -0.0281664040 -1.8310426551 0.2601017444
C -2.8170865096 -0.9197492631 0.4252404689
C -2.3723606929 -2.2516277882 0.4908810966
C -1.0212861916 -2.6431305377 0.4009469159
C -4.2838662371 -0.6077604276 0.5737154865
C -0.6655813564 -4.1037957825 0.5207215517
H -3.1231401405 -3.0397621888 0.6368337940
H -4.7528456087 -1.2114696324 1.3728782623
H -4.4286210013 0.4678121354 0.7801024886
H -4.8084432419 -0.8554923561 -0.3738260042
H -1.2940432758 -4.7153979179 -0.1545908199
H 0.4007792000 -4.2639876430 0.2808745874
H -0.8549251113 -4.4637648403 1.5532780171
C 2.5919103943 1.8825456341 0.3297941811
C 1.6693918345 2.8161974871 -0.4733259303
H 3.6516539363 1.9901343996 0.0262477758
H 2.5076975750 2.0663118324 1.4211374583
H 1.7793190338 3.8821639406 -0.1824287528
H 1.9441264081 2.7780230274 -1.5515949673
C 2.8355493353 -0.9173543670 1.3007527466
H 2.5726733487 -0.5526107150 2.3140115568
H 2.4493261387 -1.9473959226 1.1818841118
H 3.9393483750 -0.9116793072 1.1980684051
C 2.7388194506 -0.4103244647 -1.5856538926
H 2.4244363555 -1.4581710948 -1.7645225336
H 2.3318878981 0.2025300716 -2.4153066960
H 3.8458036455 -0.3647187560 -1.5888801619
C -1.0215888134 3.1645563901 0.9678646355
C -1.7494148672 4.4508691603 0.5703609442
C -0.0922302793 3.3765853257 2.1698071697
H -1.7832682391 2.4008098776 1.2389181881
H -2.3522492529 4.7891394219 1.4379914109
H -2.4454060534 4.3095985306 -0.2771618795
H -1.0474336825 5.2718092304 0.3186354088
H 0.3474335178 2.4298162537 2.5470367999
H -0.6659600854 3.8199331866 3.0091445302
H 0.7342908104 4.0789793825 1.9386984085
C -0.7219653935 2.6745837975 -2.1390502871
C -2.1263041297 2.1373672923 -2.4341861992
C -0.5170806478 4.1400271081 -2.5495203264
H 0.0037430887 2.0651609032 -2.7231508510
H -2.9086097425 2.7702340418 -1.9709632376
H -2.2683983050 1.1083859303 -2.0444607437
H -2.3133982611 2.1322314171 -3.5263016839
H 0.5339581966 4.4709883566 -2.4095932446
H -0.7439120283 4.2542600661 -3.6311261733
H -1.1839486772 4.8342031431 -2.0079223984
51
step=18 E=-2803.686144333150 Eh
Co -0.1505202854 0.0699611900 -0.0269838046
P 2.0474632386 0.1567402531 0.0027145671
P -0.1478955294 2.2450619059 -0.4436801331
O -2.0383098852 0.1322147799 0.2031829701
O -0.0129703839 -1.8112128074 0.2265483737
C -2.7992872899 -0.8907323261 0.4370413820
C -2.3535986685 -2.2265571502 0.5244127991
C -1.0049853503 -2.6212801211 0.4179081105
C -4.2698457297 -0.5857461601 0.5973193722
C -0.6396448601 -4.0797582734 0.5650438060
H -3.0994934186 -3.0153860941 0.6979338727
H -4.7309898952 -1.2177833470 1.3816956320
H -4.4238406692 0.4818085449 0.8419397094
H -4.8149401257 -0.7933438269 -0.3490928900
H -1.3014804599 -4.7322469587 -0.0414707903
H 0.4103428101 -4.2541407796 0.2660164477
H -0.7631576805 -4.3934042958 1.6233493414
C 2.5582688443 1.9102923714 0.2713950256
C 1.6274164601 2.8479435220 -0.5063931143
H 3.6190534162 2.0663751020 -0.0265564839
H 2.4851060237 2.0876068129 1.3626651768
H 1.7232658988 3.8969074212 -0.1543516092
H 1.9124181745 2.8589018436 -1.5786781207
C 2.8438980707 -0.8348319892 1.3231802219
H 2.5033895167 -0.4857127774 2.3169356547
H 2.5177974010 -1.8872919827 1.2021815112
H 3.9476276261 -0.7647749538 1.2585944934
C 2.8470650821 -0.4161685678 -1.5469620391
H 2.5245271646 -1.4643782606 -1.7073474759
H 2.5257998963 0.1899584571 -2.4156810626
H 3.9533881626 -0.3825638657 -1.4660514981
C -1.0481756712 3.1625146610 0.9143103223
C -1.4934684813 4.6026940102 0.6519759983
C -0.2011348967 3.0476875537 2.1930887368
H -1.9485306600 2.5189950811 1.0472214811
H -2.1235242256 4.9488427326 1.4983932084
H -2.1082396713 4.6911973675 -0.2597278718
H -0.6292468564 5.2983094552 0.5719657865
H 0.0454014362 1.9938245497 2.4426365711
H -0.7659007453 3.4626182012 3.0533722521
H 0.7469192637 3.6210934661 2.1185565348
C -0.7870066947 2.6050685268 -2.1778097759
C -2.2642079702 2.2296543869 -2.3704867160
C -0.4812219402 4.0177143999 -2.7032042708
H -0.1607803298 1.8831810599 -2.7609939490
H -2.9383982365 2.9522028958 -1.8641538236
H -2.5011859648 1.2205356812 -1.9889774657
H -2.5033812874 2.2523125978 -3.4537615479
H 0.5818206917 4.3040108726 -2.6077939631
H -0.7358302205 4.0603241953 -3.7813709321
H -1.0824392180 4.7902928700 -2.1869549956
51
step=19 E=-2803.686828465959 Eh
Co -0.1486528366 0.0707189742 -0.0301952061
P 2.0449391209 0.1644167621 -0.0048192446
P -0.1488523881 2.2458698526 -0.4513369131
O -2.0364991645 0.1298279777 0.2128792819
O -0.0094922188 -1.8109295169 0.2267887854
C -2.7968570570 -0.8911349166 0.4573945298
C -2.3460122164 -2.2233862756 0.5471958253
C -0.9985649064 -2.6206246442 0.4305170451
C -4.2656673310 -0.5859320277 0.6196796986
C -0.6321647648 -4.0768195371 0.5813665690
H -3.0926070604 -3.0082612484 0.7354091771
H -4.7329213694 -1.2290316865 1.3905304669
H -4.4148904449 0.4783193338 0.8802433919
H -4.8016929689 -0.7771820935 -0.3350178746
H -1.3127472843 -4.7288551468 -0.0024175544
H 0.4097776611 -4.2519797141 0.2570022210
H -0.7275123080 -4.3818429402 1.6451560324
C 2.5694863765 1.9198530691 0.2599650485
C 1.6227134520 2.8535994669 -0.5039208382
H 3.6254448768 2.0724393933 -0.0521738370
H 2.5171516798 2.0997441373 1.3528298305
H 1.7032803612 3.8984233493 -0.1381455569
H 1.9069309718 2.8811640317 -1.5759427958
C 2.8371145077 -0.8219260481 1.3198376333
H 2.4772772011 -0.4796480242 2.3093717651
H 2.5300436392 -1.8779782818 1.1890114382
H 3.9409585361 -0.7367692139 1.2729431911
C 2.8498993383 -0.4158944353 -1.5517498760
H 2.5134034675 -1.4563972396 -1.7328266796
H 2.5431863771 0.2065330047 -2.4142936261
H 3.9554311641 -0.3997332673 -1.4633219075
C -1.0560748150 3.1732466479 0.8976231605
C -1.3814889581 4.6499052472 0.6629788963
C -0.2765642680 2.9688430898 2.2094049222
H -1.9985049046 2.5845060374 0.9692910850
H -2.0219080909 5.0178276955 1.4915084560
H -1.9432704561 4.8167429781 -0.2736674235
H -0.4688184254 5.2811841419 0.6463679726
H -0.1089161883 1.8943562295 2.4334449322
H -0.8515932858 3.3942262866 3.0572908336
H 0.7066239180 3.4833966614 2.1960317615
C -0.7876693895 2.5975764756 -2.1876140773
C -2.2599579640 2.2056808713 -2.3842602807
C -0.4959678121 4.0160224006 -2.7058149448
H -0.1607442814 1.8807374989 -2.7719080120
H -2.9416494213 2.9057781061 -1.8582522896
H -2.4786834957 1.1840219955 -2.0240788014
H -2.5091546821 2.2508320693 -3.4643025096
H 0.5656413630 4.3120162530 -2.6063099736
H -0.7486163395 4.0636165332 -3.7845432732
H -1.1077372538 4.7796827046 -2.1880825631
51
step=20 E=-2803.687429215750 Eh
Co -0.1455356280 0.0655486708 -0.0264124849
P 2.0407182267 0.1631150938 -0.0100816639
P -0.1493454405 2.2390318389 -0.4544949909
O -2.0355704696 0.1236517257 0.2116617021
O -0.0069884467 -1.8170983574 0.2274502131
C -2.7965542452 -0.8964564275 0.4601786463
C -2.3432136201 -2.2255017826 0.5554338181
C -0.9957547111 -2.6254761295 0.4349916830
C -4.2650270289 -0.5890410051 0.6111292901
C -0.6305515677 -4.0811320507 0.5826574485
H -3.0917817543 -3.0047955556 0.7559028938
H -4.7458196853 -1.2415349769 1.3647796959
H -4.4101194828 0.4718243602 0.8864489263
H -4.7827636412 -0.7645910877 -0.3562271113
H -1.3276130923 -4.7280546902 0.0149702619
H 0.4043508148 -4.2556308758 0.2373038305
H -0.7027331511 -4.3839217803 1.6488492186
C 2.5689730017 1.9250657651 0.2514209104
C 1.6189487688 2.8581791547 -0.5118562709
H 3.6278659555 2.0800022691 -0.0448676567
H 2.5158367486 2.1063974740 1.3454001423
H 1.6792352986 3.9018341742 -0.1413606402
H 1.8994917618 2.8923508597 -1.5847150081
C 2.8297198656 -0.8155968808 1.3209144929
H 2.4628028770 -0.4679790049 2.3061116454
H 2.5312355884 -1.8736660929 1.1917234508
H 3.9340129808 -0.7282641020 1.2818572798
C 2.8664824304 -0.4066742481 -1.5522773346
H 2.5505436447 -1.4485173845 -1.7585602860
H 2.5604319822 0.2266517914 -2.4075996559
H 3.9697340152 -0.3707963682 -1.4492332160
C -1.0527901134 3.1788909198 0.8940360039
C -1.2956131362 4.6737680163 0.6711046863
C -0.3152856380 2.9358577821 2.2247010872
H -2.0207649104 2.6333557949 0.9369534651
H -1.8916896005 5.0765770663 1.5156692240
H -1.8634409622 4.8862501303 -0.2538114888
H -0.3501590355 5.2496198056 0.6400229973
H -0.1786200280 1.8557620025 2.4377299522
H -0.9036457169 3.3647606295 3.0612043763
H 0.6781732729 3.4289245213 2.2458829704
C -0.7990706617 2.5850852179 -2.1869549943
C -2.2774480429 2.2014718813 -2.3583059663
C -0.5088532593 3.9940103668 -2.7300178323
H -0.1924858008 1.8582680504 -2.7760630517
H -2.9459793738 2.8996486803 -1.8150685328
H -2.4907268626 1.1760798101 -2.0036570488
H -2.5495066006 2.2600664487 -3.4318986823
H 0.5556078361 4.2902325614 -2.6447171277
H -0.7731585668 4.0285449026 -3.8066493612
H -1.1178378396 4.7653961981 -2.2196842178
51
step=21 E=-2803.687780315717 Eh
Co -0.1423043634 0.0639375664 -0.0228052800
P 2.0393131460 0.1628729471 -0.0145890836
P -0.1469795101 2.2362657789 -0.4615887066
O -2.0329514965 0.1183303683 0.2126686191
O -0.0035581168 -1.8195823994 0.2304284480
C -2.7923916227 -0.9017265474 0.4671027693
C -2.3379829150 -2.2289697534 0.5701038608
C -0.9902691827 -2.6278897491 0.4436875092
C -4.2609414917 -0.5930685353 0.6129785462
C -0.6238746251 -4.0831544871 0.5924969492
H -3.0840010783 -3.0075455548 0.7813170734
H -4.7525350905 -1.2602292732 1.3458951323
H -4.4039463204 0.4620894076 0.9101003678
H -4.7664843116 -0.7448451523 -0.3648491551
H -1.3378869535 -4.7319580601 0.0495858328
H 0.4015146352 -4.2608740466 0.2214605485
H -0.6659518428 -4.3776725675 1.6626194100
C 2.5671660487 1.9302723790 0.2447673792
C 1.6175962337 2.8647377846 -0.5185163524
H 3.6277940274 2.0824595546 -0.0443751435
H 2.5105039657 2.1092275555 1.3395716464
H 1.6719979126 3.9070852666 -0.1426168238
H 1.8969641404 2.9069545435 -1.5919052782
C 2.8302170207 -0.8067388280 1.3234620580
H 2.4586107634 -0.4564697841 2.3061578436
H 2.5403972738 -1.8674054627 1.1962072939
H 3.9344631602 -0.7138606655 1.2915219193
C 2.8704021909 -0.4031653819 -1.5568810523
H 2.5629594261 -1.4447508104 -1.7749247371
H 2.5631024022 0.2363907228 -2.4078525094
H 3.9727520853 -0.3593158436 -1.4490315245
C -1.0506488368 3.1870118036 0.8775935558
C -1.2159046854 4.6959522849 0.6827538380
C -0.3674066420 2.8818613882 2.2240708269
H -2.0452767055 2.6903504053 0.8764764164
H -1.7780894969 5.1138274720 1.5431967135
H -1.7809744407 4.9576252697 -0.2310961309
H -0.2406782880 5.2216931780 0.6509776429
H -0.2688788282 1.7925904155 2.4106839916
H -0.9710942925 3.3054164577 3.0522015575
H 0.6387324851 3.3445155605 2.2914811895
C -0.8029028877 2.5844068377 -2.1903286797
C -2.2853486842 2.2087294667 -2.3420832840
C -0.5105969133 3.9881805895 -2.7443544724
H -0.2076246799 1.8528964271 -2.7841799971
H -2.9419723321 2.8992387815 -1.7749869240
H -2.4953173995 1.1781700842 -1.9993421875
H -2.5767284533 2.2873758725 -3.4091784051
H 0.5557321032 4.2804344687 -2.6641934914
H -0.7767572680 4.0167418646 -3.8209878550
H -1.1173119513 4.7653992873 -2.2407991920
51
step=22 E=-2803.688105368100 Eh
Co -0.1379823182 0.0597040641 -0.0120800322
P 2.0419190223 0.1577801022 -0.0148048275
P -0.1450313527 2.2326335459 -0.4670279343
O -2.0292764475 0.1117669829 0.2107293492
O 0.0007880587 -1.8244170885 0.2386406929
C -2.7880422132 -0.9084981759 0.4665673211
C -2.3333265202 -2.2351730175 0.5771392414
C -0.9851291436 -2.6328624551 0.4506856520
C -4.2575801135 -0.5991456611 0.6034152485
C -0.6180171641 -4.0883744489 0.5992261006
H -3.0773180442 -3.0151172962 0.7900941758
H -4.7615559194 -1.2850749193 1.3098544614
H -4.4007795376 0.4478654169 0.9283023814
H -4.7501406208 -0.7196889000 -0.3854907735
H -1.3463751667 -4.7403720838 0.0799891392
H 0.3978515215 -4.2707102486 0.2044993771
H -0.6316772180 -4.3744756496 1.6724958975
C 2.5653529882 1.9285969535 0.2451305710
C 1.6202716992 2.8600280264 -0.5266007958
H 3.6304427500 2.0780018436 -0.0285913793
H 2.4936478753 2.1041045784 1.3397304985
H 1.6751567815 3.9038403522 -0.1543797372
H 1.9003820802 2.8992015916 -1.6002116097
C 2.8435912847 -0.8086501915 1.3201576078
H 2.4821268321 -0.4533556351 2.3049027606
H 2.5518259708 -1.8697015658 1.1993357622
H 3.9477552080 -0.7173930591 1.2801937000
C 2.8731028287 -0.4001549135 -1.5602909681
H 2.5823998993 -1.4462578397 -1.7783133319
H 2.5533206900 0.2359748813 -2.4094670389
H 3.9748923823 -0.3372959878 -1.4554605710
C -1.0462080510 3.1923948644 0.8677702506
C -1.1694050661 4.7059271494 0.6738543410
C -0.3985804339 2.8601785624 2.2250329852
H -2.0562967684 2.7276719984 0.8434479947
H -1.6749159967 5.1433207269 1.5594895397
H -1.7690175333 4.9818087063 -0.2131411366
H -0.1802496857 5.2018488811 0.5932293361
H -0.3099276338 1.7674979511 2.3969672052
H -1.0187527055 3.2731835431 3.0463531057
H 0.6088977597 3.3152326753 2.3225906570
C -0.8100831334 2.5925808420 -2.1900314784
C -2.2951349757 2.2239228705 -2.3273035446
C -0.5153232864 3.9960280310 -2.7426431000
H -0.2237981981 1.8586264747 -2.7902771989
H -2.9411347276 2.9063451918 -1.7384773463
H -2.5032295258 1.1888775049 -1.9969227043
H -2.6016070278 2.3217025239 -3.3884984274
H 0.5515747168 4.2852796955 -2.6642025640
H -0.7809595265 4.0251257834 -3.8196097832
H -1.1209054765 4.7748811450 -2.2408389239
51
step=23 E=-2803.688366527411 Eh
Co -0.1329357429 0.0583367853 -0.0013801359
P 2.0488129584 0.1560153989 -0.0113140208
P -0.1375366827 2.2292047670 -0.4735959238
O -2.0246916875 0.1084965323 0.2049269330
O 0.0069018229 -1.8250083678 0.2508792316
C -2.7830759918 -0.9118371567 0.4599299863
C -2.3283620703 -2.2384553790 0.5784742433
C -0.9792961492 -2.6336774179 0.4587821609
C -4.2538712485 -0.6031953442 0.5869928293
C -0.6102283167 -4.0885843745 0.6123020123
H -3.0725471436 -3.0198305764 0.7848753543
H -4.7696670463 -1.3113651794 1.2621624879
H -4.3994837387 0.4328805572 0.9450983519
H -4.7343102717 -0.6851515981 -0.4119881780
H -1.3501487531 -4.7478812677 0.1190582281
H 0.3959817064 -4.2770852298 0.1956334236
H -0.5960709814 -4.3613022566 1.6892212860
C 2.5658454508 1.9272359385 0.2499603597
C 1.6293029048 2.8550115143 -0.5338423895
H 3.6342005583 2.0746377514 -0.0128048713
H 2.4762803165 2.1022371021 1.3429910174
H 1.6884761797 3.9015253121 -0.1690704413
H 1.9146723056 2.8855789893 -1.6064632103
C 2.8606211006 -0.8134073722 1.3154474762
H 2.5130191352 -0.4563352734 2.3045657607
H 2.5612854992 -1.8730279695 1.1993547196
H 3.9645021807 -0.7264121144 1.2624599968
C 2.8661382173 -0.3938752054 -1.5660001096
H 2.5832512120 -1.4444504205 -1.7730653167
H 2.5297883077 0.2334557205 -2.4151147162
H 3.9686221630 -0.3200509515 -1.4748192073
C -1.0398899835 3.1917004732 0.8562208740
C -1.1503274825 4.7071236433 0.6608092270
C -0.4169233814 2.8427295231 2.2190536806
H -2.0557001494 2.7397042826 0.8138519091
H -1.6089495410 5.1564111073 1.5659916185
H -1.7886394024 4.9814256229 -0.1988794669
H -0.1605197695 5.1922130461 0.5294804072
H -0.3257165964 1.7473961669 2.3745384119
H -1.0536737027 3.2382108544 3.0363900529
H 0.5873823126 3.2995818595 2.3414574404
C -0.8105331488 2.6011863601 -2.1906299943
C -2.2974480198 2.2370149580 -2.3130060864
C -0.5137579496 4.0084488880 -2.7308680176
H -0.2266591221 1.8713227926 -2.7992774090
H -2.9339316857 2.9117448202 -1.7045711991
H -2.5029292280 1.1986916489 -1.9914099150
H -2.6190236730 2.3484695431 -3.3683392870
H 0.5532680599 4.2949909999 -2.6504775097
H -0.7774532582 4.0443212182 -3.8081610101
H -1.1179705577 4.7846912037 -2.2241561375
51
step=24 E=-2803.688521835612 Eh
Co -0.1285613225 0.0592465224 0.0059797959
P 2.0567554475 0.1574332568 -0.0063327804
P -0.1325599100 2.2284205664 -0.4764364856
O -2.0209815373 0.1080789276 0.1976671821
O 0.0130030730 -1.8228250586 0.2614048396
C -2.7792519055 -0.9125563420 0.4496247048
C -2.3236667253 -2.2392705573 0.5729067645
C -0.9738102856 -2.6329397046 0.4631882316
C -4.2510492919 -0.6058407290 0.5688792643
C -0.6023858066 -4.0866162486 0.6233393764
H -3.0684895881 -3.0223760561 0.7705277077
H -4.7757572769 -1.3339325932 1.2152937019
H -4.4001199286 0.4188274297 0.9581167453
H -4.7218483233 -0.6515050959 -0.4371042245
H -1.3502317095 -4.7533405926 0.1522790420
H 0.3958364287 -4.2804635139 0.1897111675
H -0.5659609479 -4.3465234769 1.7030508480
C 2.5673372966 1.9254794717 0.2593964211
C 1.6362288284 2.8490504363 -0.5368324749
H 3.6375074569 2.0757406613 0.0041050024
H 2.4639819349 2.1023792105 1.3505216975
H 1.7003929325 3.8979917094 -0.1796089712
H 1.9268643301 2.8684588342 -1.6082264859
C 2.8815752046 -0.8204591333 1.3055833087
H 2.5494361800 -0.4661112930 2.3008926484
H 2.5726975178 -1.8776170411 1.1906857282
H 3.9848023350 -0.7389805387 1.2357953944
C 2.8599506993 -0.3903727914 -1.5681540727
H 2.5799407260 -1.4449035339 -1.7598256814
H 2.5088727116 0.2253228041 -2.4193615225
H 3.9634231782 -0.3112681982 -1.4923370554
C -1.0379005882 3.1865562983 0.8527792582
C -1.1558841816 4.7008151363 0.6453790728
C -0.4188624485 2.8402681453 2.2175427036
H -2.0510751117 2.7278825652 0.8082086173
H -1.5862876574 5.1611766195 1.5588282795
H -1.8238914312 4.9610044733 -0.1959487890
H -0.1725983655 5.1866255524 0.4734756728
H -0.3151469683 1.7448902125 2.3673435656
H -1.0647142549 3.2227060207 3.0339620608
H 0.5800248851 3.3070062050 2.3481384658
C -0.8124192193 2.6087548495 -2.1890317070
C -2.3017966539 2.2549502364 -2.3053533375
C -0.5075034903 4.0166049574 -2.7236646120
H -0.2330611686 1.8768840249 -2.8003350865
H -2.9300961587 2.9340658980 -1.6930027851
H -2.5133667849 1.2184798498 -1.9824031696
H -2.6277643992 2.3679934966 -3.3592444939
H 0.5607136236 4.2970474089 -2.6413700862
H -0.7699515027 4.0571573354 -3.8009776492
H -1.1065556268 4.7941825635 -2.2131065500
51
step=25 E=-2803.688656733038 Eh
Co -0.1236772904 0.0625429988 0.0080133582
P 2.0644187485 0.1629246517 -0.0025503137
P -0.1242229877 2.2285986642 -0.4814294637
O -2.0168900666 0.1089146968 0.1896133573
O 0.0211925505 -1.8175214211 0.2721138877
C -2.7743616377 -0.9122037891 0.4400903733
C -2.3168335701 -2.2381455562 0.5688101785
C -0.9657929397 -2.6293975420 0.4699510867
C -4.2469668561 -0.6077830510 0.5525147601
C -0.5904821646 -4.0806811005 0.6402016420
H -3.0625593109 -3.0221109585 0.7585233499
H -4.7811952470 -1.3575224772 1.1651869690
H -4.3992557315 0.4024249175 0.9776130153
H -4.7059415984 -0.6114958388 -0.4599823270
H -1.3487132111 -4.7555409255 0.1984676311
H 0.3969713092 -4.2805532043 0.1848345656
H -0.5250919806 -4.3237375983 1.7225937140
C 2.5726805244 1.9276769012 0.2658138810
C 1.6451620449 2.8477838714 -0.5384493894
H 3.6423681826 2.0813580843 0.0098872660
H 2.4636094812 2.1099426252 1.3551517928
H 1.7094447448 3.8982263603 -0.1860305159
H 1.9423509342 2.8594377924 -1.6079818187
C 2.8933544674 -0.8256912410 1.2975041894
H 2.5688437385 -0.4773023900 2.2973519946
H 2.5772898259 -1.8802333051 1.1781373078
H 3.9962091870 -0.7485371776 1.2192104991
C 2.8493906783 -0.3817213887 -1.5735914533
H 2.5621842610 -1.4365036971 -1.7549553151
H 2.4878578847 0.2287321309 -2.4238373358
H 3.9542872245 -0.3087302928 -1.5137071084
C -1.0371673377 3.1798857605 0.8460342717
C -1.1561273211 4.6949629736 0.6416163697
C -0.4286277189 2.8259441432 2.2131530391
H -2.0471011810 2.7152400609 0.7909216632
H -1.5826965289 5.1571825143 1.5559135802
H -1.8288610899 4.9537667775 -0.1967571236
H -0.1744166518 5.1805054386 0.4627021370
H -0.3246750684 1.7292583486 2.3541441223
H -1.0816617360 3.2006345379 3.0274333191
H 0.5688478393 3.2920344320 2.3560756216
C -0.8073642833 2.6119380167 -2.1913087093
C -2.2997881123 2.2699502254 -2.2971501684
C -0.4931449998 4.0182975871 -2.7251656620
H -0.2343530624 1.8772915856 -2.8053873962
H -2.9182983639 2.9581595881 -1.6847976058
H -2.5178427708 1.2373673821 -1.9662732859
H -2.6317437374 2.3786922943 -3.3496349500
H 0.5773799185 4.2904257575 -2.6445810878
H -0.7579866701 4.0614984402 -3.8015915834
H -1.0837282567 4.7997836811 -2.2107816006
51
step=26 E=-2803.688829529945 Eh
Co -0.1163853827 0.0655337265 0.0065697660
P 2.0733474786 0.1687522814 0.0008258059
P -0.1144998420 2.2289617987 -0.4872219942
O -2.0113662953 0.1065404913 0.1763664138
O 0.0334152662 -1.8120759076 0.2842479112
C -2.7674917994 -0.9157938708 0.4248798622
C -2.3061959260 -2.2399165849 0.5605281147
C -0.9531609755 -2.6272192276 0.4765628103
C -4.2409691834 -0.6143945758 0.5284232078
C -0.5718374764 -4.0746817015 0.6607296693
H -3.0518478972 -3.0250816087 0.7450137405
H -4.7889541323 -1.3946334789 1.0879548595
H -4.3977629325 0.3708717562 1.0080803159
H -4.6808657405 -0.5539537291 -0.4906784037
H -1.3467647127 -4.7593035338 0.2663408191
H 0.3966464049 -4.2840327802 0.1698369826
H -0.4587242458 -4.2931508275 1.7445852861
C 2.5799200981 1.9293330884 0.2751843602
C 1.6548541790 2.8462126143 -0.5392533640
H 3.6487191215 2.0886727269 0.0188586299
H 2.4665726736 2.1178918209 1.3628744795
H 1.7175244300 3.8983988007 -0.1923465028
H 1.9588496414 2.8491705142 -1.6067198683
C 2.9093717532 -0.8342445965 1.2839391761
H 2.5941437489 -0.4944014329 2.2895900461
H 2.5854400688 -1.8854785396 1.1570138264
H 4.0117500593 -0.7623851591 1.1956320195
C 2.8413941101 -0.3736892287 -1.5791535455
H 2.5460227420 -1.4279739826 -1.7522717589
H 2.4688964286 0.2326833856 -2.4272990334
H 3.9475173671 -0.3081483732 -1.5361679648
C -1.0371831310 3.1717082787 0.8398878806
C -1.1563194911 4.6865020316 0.6352990969
C -0.4377247387 2.8150289082 2.2106765104
H -2.0428459823 2.6994062317 0.7755331770
H -1.5892695854 5.1510174569 1.5452864941
H -1.8229780051 4.9448670299 -0.2087010461
H -0.1737885692 5.1709461451 0.4609742082
H -0.3374041450 1.7177244295 2.3496136241
H -1.0954780915 3.1896630196 3.0211386551
H 0.5598486729 3.2780648821 2.3619029915
C -0.8037278598 2.6165812385 -2.1934414362
C -2.3024528111 2.2994833750 -2.2860031432
C -0.4707617169 4.0167521236 -2.7336872360
H -0.2480981984 1.8709143615 -2.8099142325
H -2.9047820162 3.0094350246 -1.6825739973
H -2.5367249151 1.2764980428 -1.9368833461
H -2.6387160680 2.3964873244 -3.3382800913
H 0.6046632882 4.2717500695 -2.6617712846
H -0.7443903651 4.0625477379 -3.8076252104
H -1.0433707108 4.8085432993 -2.2142337822
51
step=27 E=-2803.689094968217 Eh
Co -0.1056648042 0.0666805175 -0.0020130556
P 2.0839011924 0.1749649317 0.0011560168
P -0.1012596620 2.2279276168 -0.4983853846
O -2.0029350360 0.0985461658 0.1540425372
O 0.0514357066 -1.8072020094 0.2988920829
C -2.7562490666 -0.9260006573 0.4022494970
C -2.2891748711 -2.2466678616 0.5502360707
C -0.9330808232 -2.6273144874 0.4865458794
C -4.2307332393 -0.6280382388 0.4937731585
C -0.5421131520 -4.0686630054 0.6914850323
H -3.0332129599 -3.0339050428 0.7306678411
H -4.7982725017 -1.4502562080 0.9657789330
H -4.3951132000 0.3110739844 1.0575326489
H -4.6400492455 -0.4659491835 -0.5267891886
H -1.3430868975 -4.7648669144 0.3799408173
H 0.3892947221 -4.2963140299 0.1400323526
H -0.3455554222 -4.2474605971 1.7708752091
C 2.5905432615 1.9324748723 0.2813415699
C 1.6674530830 2.8448641261 -0.5422102574
H 3.6580029756 2.0977102907 0.0234930968
H 2.4758537144 2.1286738980 1.3674759189
H 1.7238678838 3.8988830323 -0.2008799026
H 1.9798232661 2.8405501210 -1.6070648834
C 2.9222086854 -0.8426432284 1.2696784515
H 2.6120852675 -0.5121877791 2.2799830937
H 2.5919429716 -1.8904407273 1.1321779882
H 4.0244508084 -0.7754513797 1.1766581271
C 2.8367150071 -0.3583970181 -1.5892708118
H 2.5320258691 -1.4102666860 -1.7629026787
H 2.4553775225 0.2507666115 -2.4313851533
H 3.9436613333 -0.3021106193 -1.5605163687
C -1.0355268494 3.1610883751 0.8286783714
C -1.1429128630 4.6776256988 0.6344857615
C -0.4549216366 2.7917142481 2.2043916168
H -2.0395776013 2.6889507435 0.7464956371
H -1.5998577962 5.1385854770 1.5343527818
H -1.7812671250 4.9485594512 -0.2279539803
H -0.1530047386 5.1569210346 0.4931326686
H -0.3747764436 1.6927111979 2.3412560013
H -1.1147996309 3.1760486315 3.0085505682
H 0.5481106455 3.2382251638 2.3673970793
C -0.7981856535 2.6220375797 -2.1992451236
C -2.3071136174 2.3486213977 -2.2649128427
C -0.4342209717 4.0084316128 -2.7558902174
H -0.2766935309 1.8563696293 -2.8201534628
H -2.8796184067 3.0952172227 -1.6772282977
H -2.5668860105 1.3434550602 -1.8830471766
H -2.6537137417 2.4252725627 -3.3154927562
H 0.6496522151 4.2317581319 -2.7064692123
H -0.7285172627 4.0566214602 -3.8241194921
H -0.9721196256 4.8199709364 -2.2292634421
51
step=28 E=-2803.689399744078 Eh
Co -0.0917434148 0.0632737285 -0.0193519303
P 2.0951519896 0.1769016391 -0.0036276466
P -0.0887375625 2.2246647874 -0.5126583862
O -1.9915699261 0.0836428263 0.1205567633
O 0.0721938018 -1.8061050335 0.3095931374
C -2.7424498421 -0.9430901406 0.3692314184
C -2.2693394891 -2.2592307338 0.5341357482
C -0.9095256313 -2.6308760615 0.4940368703
C -4.2175383549 -0.6469077876 0.4491845180
C -0.5074155015 -4.0648132456 0.7226647685
H -3.0104985836 -3.0484262117 0.7165157187
H -4.8052790790 -1.5101303674 0.8085836737
H -4.3922952048 0.2232064198 1.1131678237
H -4.5910218319 -0.3590357411 -0.5568190516
H -1.3357855540 -4.7686009853 0.5226316285
H 0.3664697816 -4.3214616861 0.0940840373
H -0.1998451189 -4.1952002307 1.7829853755
C 2.5996995997 1.9342623229 0.2833466006
C 1.6783718469 2.8439862592 -0.5483896331
H 3.6670146901 2.1034178941 0.0282345757
H 2.4831072755 2.1336210375 1.3688705530
H 1.7272088248 3.8999347889 -0.2122129673
H 1.9969573474 2.8358169520 -1.6113149158
C 2.9354680562 -0.8485173919 1.2566684520
H 2.6268335034 -0.5238543592 2.2693078479
H 2.6038902265 -1.8947769996 1.1116979704
H 4.0377330829 -0.7823101137 1.1630692922
C 2.8492194054 -0.3448543160 -1.5984880096
H 2.5436209224 -1.3946869538 -1.7827860128
H 2.4662339170 0.2715533063 -2.4347183722
H 3.9561397256 -0.2901850082 -1.5707702999
C -1.0291763126 3.1502022050 0.8172625721
C -1.1206425755 4.6682036836 0.6321857515
C -0.4658134124 2.7693104008 2.1971537134
H -2.0352527857 2.6858414258 0.7208337842
H -1.6150654300 5.1238493744 1.5147203130
H -1.7145828706 4.9541873509 -0.2570986513
H -0.1217023052 5.1413904650 0.5428868280
H -0.4166141563 1.6693485099 2.3384135788
H -1.1201608834 3.1747647507 2.9955093746
H 0.5470351305 3.1906372245 2.3652904358
C -0.7983460954 2.6290771776 -2.2058673473
C -2.3187700096 2.4134430985 -2.2355791704
C -0.3954705360 3.9949729550 -2.7858880218
H -0.3258543351 1.8371872137 -2.8321367363
H -2.8511676724 3.2057962938 -1.6710091574
H -2.6092623059 1.4342656563 -1.8097180157
H -2.6806388799 2.4624218857 -3.2826045627
H 0.6977393003 4.1736031713 -2.7740535435
H -0.7228824598 4.0486988249 -3.8442272909
H -0.8823521376 4.8320366779 -2.2489001236
51
step=29 E=-2803.689653669932 Eh
Co -0.0809697163 0.0554591159 -0.0397731970
P 2.1026242974 0.1739171120 -0.0144397256
P -0.0829543998 2.2194818733 -0.5253256245
O -1.9817396591 0.0695607442 0.0908462550
O 0.0848539653 -1.8107246445 0.3096767568
C -2.7315262443 -0.9577357730 0.3428899862
C -2.2559962959 -2.2707456831 0.5227001968
C -0.8942171452 -2.6371917737 0.4970530812
C -4.2064636010 -0.6607166231 0.4217009441
C -0.4860155390 -4.0672068243 0.7383950885
H -2.9947345516 -3.0609429483 0.7098310005
H -4.8046210014 -1.5462720660 0.6999906945
H -4.3866241423 0.1499430124 1.1567107786
H -4.5603956627 -0.2829639369 -0.5606377043
H -1.3316493463 -4.7697009668 0.6294920683
H 0.3311490494 -4.3510216089 0.0472005478
H -0.0862475964 -4.1656870592 1.7707804460
C 2.6044486980 1.9353709362 0.2730008869
C 1.6825695663 2.8437964129 -0.5574289786
H 3.6728704951 2.1028366831 0.0218750168
H 2.4884798484 2.1316311731 1.3593241158
H 1.7252618962 3.9002302143 -0.2218127814
H 2.0018065509 2.8395322505 -1.6202970671
C 2.9383501965 -0.8433773469 1.2560337976
H 2.6210637605 -0.5156707334 2.2650954679
H 2.6145141663 -1.8921458300 1.1122292617
H 4.0410384080 -0.7712379200 1.1717531930
C 2.8783718475 -0.3371072866 -1.6033554772
H 2.5821846377 -1.3857504584 -1.8068825546
H 2.5066575132 0.2901331880 -2.4369256036
H 3.9842339081 -0.2753414698 -1.5564614363
C -1.0198342640 3.1426974363 0.8092848697
C -1.0899048840 4.6633010244 0.6366758248
C -0.4714714814 2.7453369621 2.1901359963
H -2.0334072843 2.6972634933 0.7038589902
H -1.6235763883 5.1115391838 1.5000393846
H -1.6347440040 4.9673170775 -0.2774863717
H -0.0830518471 5.1281901312 0.6061744476
H -0.4577641488 1.6449046080 2.3337861400
H -1.1143590476 3.1730415788 2.9863181058
H 0.5531944252 3.1361315250 2.3599750402
C -0.8028569646 2.6340236909 -2.2122520244
C -2.3299650773 2.4608827091 -2.2132862785
C -0.3723503878 3.9820467621 -2.8123297066
H -0.3692498263 1.8227779541 -2.8411658944
H -2.8318475910 3.2842489983 -1.6656793817
H -2.6390561696 1.5018304125 -1.7549569530
H -2.7058372503 2.4890383758 -3.2560776540
H 0.7261218130 4.1224998201 -2.8376849957
H -0.7310049143 4.0416378296 -3.8603975034
H -0.8136977811 4.8389650539 -2.2672475074
51
step=30 E=-2803.689802629347 Eh
Co -0.0748353246 0.0468083647 -0.0541034160
P 2.1072368341 0.1667837008 -0.0260640225
P -0.0837090269 2.2140833175 -0.5323865235
O -1.9754562214 0.0617992824 0.0729826224
O 0.0884457454 -1.8181715749 0.3016710683
C -2.7264428048 -0.9637451558 0.3294539279
C -2.2523255867 -2.2761165552 0.5177306336
C -0.8903306361 -2.6421953615 0.4945395205
C -4.2011137022 -0.6647935173 0.4122867010
C -0.4827522819 -4.0724905749 0.7374831322
H -2.9908476268 -3.0649908008 0.7113789290
H -4.8008879253 -1.5572268518 0.6648404202
H -4.3805289607 0.1216584629 1.1736986469
H -4.5539762659 -0.2565995388 -0.5576323016
H -1.3368319763 -4.7701184504 0.6718643683
H 0.3003627764 -4.3713418807 0.0132437081
H -0.0363102235 -4.1621171375 1.7509408295
C 2.6040475567 1.9340320172 0.2574512750
C 1.6808779634 2.8433327739 -0.5677152431
H 3.6744300113 2.0962885295 0.0114226253
H 2.4872723301 2.1228476804 1.3451601882
H 1.7234861246 3.8993984753 -0.2302262917
H 1.9953598170 2.8450231058 -1.6321779011
C 2.9379597187 -0.8329725309 1.2628131833
H 2.6103969648 -0.4958938721 2.2655568251
H 2.6245936387 -1.8862426198 1.1286361777
H 4.0408223426 -0.7524739885 1.1881718153
C 2.9116564137 -0.3426324832 -1.6016814526
H 2.6308134842 -1.3924897763 -1.8179236572
H 2.5549565821 0.2895443152 -2.4382819779
H 4.0154530034 -0.2679966692 -1.5291908970
C -1.0107122360 3.1388406676 0.8072019089
C -1.0690508088 4.6610970082 0.6402388320
C -0.4684492939 2.7306058821 2.1867080877
H -2.0316347176 2.7100655932 0.7019068840
H -1.6246255564 5.1046199571 1.4922977876
H -1.5878185005 4.9724427877 -0.2860243704
H -0.0595764470 5.1223711051 0.6419142761
H -0.4742653829 1.6299665411 2.3296312986
H -1.1025887695 3.1686332841 2.9844065673
H 0.5632211252 3.1030616145 2.3559744714
C -0.8111705593 2.6362720679 -2.2155829781
C -2.3400086811 2.4755017912 -2.2042037540
C -0.3721864861 3.9786294180 -2.8202099746
H -0.3900240564 1.8200201804 -2.8466650850
H -2.8316129136 3.3057476709 -1.6575623627
H -2.6524063952 1.5212077899 -1.7378374070
H -2.7230456762 2.4991674248 -3.2444427081
H 0.7273979444 4.1016023540 -2.8682783080
H -0.7493531393 4.0447085729 -3.8615862108
H -0.7900855063 4.8422903665 -2.2675939183
51
step=31 E=-2803.689848109999 Eh
Co -0.0709779053 0.0419296188 -0.0590532755
P 2.1120949881 0.1630781586 -0.0327596752
P -0.0835899465 2.2106667694 -0.5364340995
O -1.9711463941 0.0591094197 0.0644408340
O 0.0906659426 -1.8222206119 0.2982693585
C -2.7226203396 -0.9649488811 0.3242415090
C -2.2497765940 -2.2774150762 0.5176335340
C -0.8881430464 -2.6447779937 0.4944281578
C -4.1972756499 -0.6650022867 0.4057231897
C -0.4813932605 -4.0752561062 0.7394683923
H -2.9888584742 -3.0654983377 0.7120778936
H -4.7981016507 -1.5593654689 0.6489918253
H -4.3778783147 0.1137056697 1.1749601879
H -4.5489409111 -0.2466941788 -0.5602778390
H -1.3388954177 -4.7705749180 0.6971105329
H 0.2834736689 -4.3829231707 -0.0007295015
H -0.0114490034 -4.1594924875 1.7425734921
C 2.6051109770 1.9330662372 0.2465712323
C 1.6812891746 2.8409177285 -0.5763518778
H 3.6765546327 2.0931980074 0.0033439777
H 2.4861342920 2.1190196665 1.3344874210
H 1.7264131457 3.8969326869 -0.2389504658
H 1.9925935813 2.8428457011 -1.6418192893
C 2.9399179660 -0.8266415520 1.2661375018
H 2.6082896911 -0.4833181073 2.2654275805
H 2.6299078697 -1.8818549675 1.1391043619
H 4.0427835145 -0.7433840710 1.1946254702
C 2.9275879064 -0.3482007280 -1.6016289159
H 2.6548870730 -1.3999820412 -1.8181796180
H 2.5759729496 0.2820598646 -2.4417952437
H 4.0302603171 -0.2660916199 -1.5192263373
C -1.0064302503 3.1340835519 0.8059375022
C -1.0605366987 4.6575335195 0.6429608892
C -0.4699014500 2.7175260649 2.1846570840
H -2.0301813081 2.7120589033 0.6984875947
H -1.6193574192 5.0993016618 1.4938574257
H -1.5758113822 4.9710490486 -0.2843012689
H -0.0503338473 5.1173894733 0.6498082577
H -0.4795446480 1.6159586975 2.3211920470
H -1.1049781788 3.1525989184 2.9832524984
H 0.5627622944 3.0850374419 2.3592207069
C -0.8153489394 2.6388621840 -2.2170207795
C -2.3438671872 2.4795706473 -2.2017253783
C -0.3746490781 3.9815270652 -2.8191311449
H -0.3939242626 1.8236673463 -2.8496314748
H -2.8325817646 3.3075850199 -1.6489334522
H -2.6554941816 1.5237792245 -1.7381675518
H -2.7305151471 2.5077454920 -3.2405307237
H 0.7250558263 4.0983843957 -2.8761936001
H -0.7593521149 4.0526609923 -3.8574666206
H -0.7831063089 4.8458760052 -2.2608939474
51
step=32 E=-2803.689873437518 Eh
Co -0.0674955766 0.0389458203 -0.0623085127
P 2.1169244040 0.1611125976 -0.0372067928
P -0.0827077754 2.2083007485 -0.5393664858
O -1.9677295109 0.0573605154 0.0573342620
O 0.0933428410 -1.8242783299 0.2959142495
C -2.7197393868 -0.9654344899 0.3194538853
C -2.2473680265 -2.2775922683 0.5173773289
C -0.8859870462 -2.6454697292 0.4945286870
C -4.1945198392 -0.6654009620 0.3994375577
C -0.4796413922 -4.0758722914 0.7409582940
H -2.9871326173 -3.0647145575 0.7130423347
H -4.7954999697 -1.5598701000 0.6420876003
H -4.3762484561 0.1129937134 1.1688478417
H -4.5459741738 -0.2465493487 -0.5663927487
H -1.3392342602 -4.7694746280 0.7147141148
H 0.2725891074 -4.3897786075 -0.0097365133
H 0.0059996974 -4.1560939792 1.7367666694
C 2.6069388560 1.9325686407 0.2383550423
C 1.6822799352 2.8395075212 -0.5842705495
H 3.6786120176 2.0925939303 -0.0041790833
H 2.4865138777 2.1179254251 1.3261898404
H 1.7299669645 3.8957069790 -0.2477713288
H 1.9905898325 2.8396734646 -1.6506070935
C 2.9421538727 -0.8224107725 1.2682360480
H 2.6079119913 -0.4747479688 2.2651344391
H 2.6329118387 -1.8784736475 1.1459656227
H 4.0451176594 -0.7388335074 1.1985716343
C 2.9379549602 -0.3564530089 -1.6006532088
H 2.6682821424 -1.4100163215 -1.8121339895
H 2.5889468684 0.2689087609 -2.4454809746
H 4.0401588873 -0.2713223463 -1.5142278229
C -1.0037471142 3.1278368295 0.8061901502
C -1.0598856627 4.6515932824 0.6451005305
C -0.4680397263 2.7074164132 2.1838217120
H -2.0274582938 2.7054489736 0.6982481716
H -1.6204325171 5.0916478706 1.4957579619
H -1.5756978524 4.9641596826 -0.2821565122
H -0.0504636223 5.1130147414 0.6522715738
H -0.4744196390 1.6050043976 2.3147717933
H -1.1057529101 3.1362365516 2.9836865047
H 0.5635087037 3.0765205756 2.3619610258
C -0.8178756804 2.6405206005 -2.2181335436
C -2.3453820677 2.4770393635 -2.2029567624
C -0.3788852027 3.9864161605 -2.8142667467
H -0.3911497964 1.8292956668 -2.8526483956
H -2.8356403429 3.2996839831 -1.6433453469
H -2.6542556036 1.5176510965 -1.7452470127
H -2.7333627588 2.5113020686 -3.2410824980
H 0.7206277705 4.1017597379 -2.8766289638
H -0.7688678496 4.0635177066 -3.8501946738
H -0.7826097861 4.8483703367 -2.2490679623
51
step=33 E=-2803.689892433114 Eh
Co -0.0634673282 0.0360448497 -0.0660129273
P 2.1222171032 0.1602480456 -0.0412918906
P -0.0807669824 2.2057223780 -0.5431703174
O -1.9640243749 0.0541514629 0.0487175091
O 0.0977240119 -1.8260605778 0.2947793056
C -2.7156427447 -0.9680498983 0.3133389853
C -2.2426681300 -2.2792249968 0.5172439270
C -0.8814179326 -2.6471199641 0.4959919319
C -4.1908224143 -0.6691608457 0.3893075131
C -0.4742200769 -4.0767605005 0.7452138902
H -2.9826411815 -3.0659191789 0.7136915346
H -4.7917325784 -1.5639184671 0.6309243387
H -4.3753613393 0.1095468700 1.1578138002
H -4.5403984945 -0.2506702802 -0.5773824399
H -1.3354305765 -4.7687719893 0.7398548077
H 0.2627341221 -4.3979654829 -0.0176321462
H 0.0308322213 -4.1507763639 1.7317235438
C 2.6105241643 1.9325361448 0.2294989753
C 1.6843849949 2.8372177449 -0.5933665759
H 3.6818302263 2.0942194977 -0.0137908322
H 2.4901848572 2.1198954912 1.3169735628
H 1.7334182768 3.8938110677 -0.2585508752
H 1.9898966423 2.8341765913 -1.6604561326
C 2.9438026590 -0.8183714543 1.2700883707
H 2.6066953325 -0.4670584497 2.2647094429
H 2.6339677812 -1.8746525628 1.1510014529
H 4.0469981472 -0.7359689214 1.2028583972
C 2.9455810739 -0.3653871221 -1.6003026625
H 2.6761539549 -1.4204394602 -1.8047922610
H 2.5977096306 0.2540746689 -2.4498596878
H 4.0476799536 -0.2797617190 -1.5128783435
C -1.0015144321 3.1194964451 0.8062446479
C -1.0596326949 4.6437377540 0.6503653160
C -0.4666080903 2.6938646461 2.1825221223
H -2.0242859847 2.6952100990 0.6962920715
H -1.6220863161 5.0809013445 1.5012381825
H -1.5747509407 4.9581675480 -0.2767047834
H -0.0507728041 5.1060657597 0.6595975694
H -0.4684758357 1.5905780712 2.3068160515
H -1.1078605418 3.1149661588 2.9836313317
H 0.5631387599 3.0658745994 2.3649806235
C -0.8195769198 2.6419892987 -2.2195256147
C -2.3462899097 2.4763454896 -2.2040351897
C -0.3815105744 3.9904923106 -2.8109168266
H -0.3896595761 1.8339185523 -2.8560336343
H -2.8368531379 3.2945364754 -1.6380871219
H -2.6534079424 1.5138315225 -1.7519954195
H -2.7358199972 2.5172813056 -3.2413459514
H 0.7179017235 4.1029249952 -2.8802285422
H -0.7787263289 4.0743064460 -3.8435291508
H -0.7783180946 4.8504568696 -2.2379039265
51
step=34 E=-2803.689908414930 Eh
Co -0.0590322576 0.0328271056 -0.0708010138
P 2.1271746734 0.1594498672 -0.0447783894
P -0.0786178865 2.2025719870 -0.5477074347
O -1.9603174253 0.0481859172 0.0379803854
O 0.1040861151 -1.8280567196 0.2936294071
C -2.7109586654 -0.9740429884 0.3049369830
C -2.2360757195 -2.2833937612 0.5161389196
C -0.8744687411 -2.6496167737 0.4974396178
C -4.1869134072 -0.6777139774 0.3752385313
C -0.4651379185 -4.0779067436 0.7499274186
H -2.9754755588 -3.0699887233 0.7150558583
H -4.7869165257 -1.5725296151 0.6187827707
H -4.3753557800 0.1039601603 1.1397905574
H -4.5341665880 -0.2639300949 -0.5943031624
H -1.3274706915 -4.7681773069 0.7680486767
H 0.2546059110 -4.4067473103 -0.0261807899
H 0.0615706636 -4.1448728869 1.7254415856
C 2.6144542867 1.9325130091 0.2204187390
C 1.6863240579 2.8348837126 -0.6034917416
H 3.6849581199 2.0965411892 -0.0247868656
H 2.4955260169 2.1232485316 1.3074911228
H 1.7355797785 3.8921606350 -0.2710270493
H 1.9887639391 2.8282363852 -1.6713946219
C 2.9446965540 -0.8144941011 1.2726019094
H 2.6041447436 -0.4597887832 2.2648165842
H 2.6342578628 -1.8708636072 1.1557613392
H 4.0482014464 -0.7335054435 1.2087823577
C 2.9518135767 -0.3766662255 -1.5992172204
H 2.6806531027 -1.4328836716 -1.7955780364
H 2.6046462790 0.2362858020 -2.4537461652
H 4.0540079521 -0.2923117939 -1.5121611538
C -0.9986218452 3.1099691764 0.8066545409
C -1.0579157431 4.6346206089 0.6577418558
C -0.4626056281 2.6788199038 2.1809434769
H -2.0203803180 2.6837066515 0.6950103846
H -1.6221545481 5.0680716614 1.5093042262
H -1.5712206043 4.9531294017 -0.2690401494
H -0.0492370475 5.0970401384 0.6705948068
H -0.4595180904 1.5747843753 2.2989177751
H -1.1064137872 3.0922455401 2.9839815673
H 0.5653203632 3.0543507726 2.3662268413
C -0.8218248888 2.6421359046 -2.2211973942
C -2.3480498945 2.4747982349 -2.2042512530
C -0.3852706379 3.9932262398 -2.8083186559
H -0.3907462699 1.8371317842 -2.8607999363
H -2.8385694265 3.2884422318 -1.6316900145
H -2.6534242575 1.5089223719 -1.7583599773
H -2.7395488154 2.5231137239 -3.2404970360
H 0.7138941449 4.1023512613 -2.8869178938
H -0.7920837238 4.0847852486 -3.8364904422
H -0.7736450369 4.8508938153 -2.2260912213
51
step=35 E=-2803.689921984790 Eh
Co -0.0547273436 0.0282620325 -0.0761368839
P 2.1312272014 0.1580261768 -0.0474776196
P -0.0768139398 2.1979865768 -0.5527649668
O -1.9567809655 0.0383259182 0.0253462811
O 0.1120076983 -1.8315293427 0.2928684981
C -2.7053712965 -0.9848999569 0.2942257471
C -2.2273213119 -2.2917399094 0.5136497506
C -0.8649553516 -2.6549292779 0.4987521259
C -4.1824813895 -0.6927657715 0.3566941225
C -0.4521710251 -4.0814600567 0.7547073448
H -2.9651682934 -3.0791735622 0.7149875716
H -4.7806550983 -1.5876386015 0.6043977916
H -4.3763555317 0.0940231310 1.1145597399
H -4.5267858657 -0.2875568543 -0.6174978749
H -1.3147554252 -4.7700840613 0.7987862652
H 0.2481834539 -4.4181952147 -0.0358429173
H 0.0985597099 -4.1407571872 1.7172239662
C 2.6182977864 1.9319137609 0.2109373728
C 1.6878682203 2.8307557673 -0.6144618187
H 3.6879031178 2.0981176463 -0.0366276179
H 2.5016811234 2.1272489254 1.2974768528
H 1.7365244837 3.8891771181 -0.2857438832
H 1.9872965518 2.8196934632 -1.6831526235
C 2.9451463916 -0.8106413268 1.2760142454
H 2.6014225121 -0.4522255871 2.2657909266
H 2.6343641560 -1.8671527823 1.1615139722
H 4.0489315002 -0.7308059046 1.2156100540
C 2.9561748199 -0.3883877998 -1.5980251916
H 2.6834788705 -1.4456895650 -1.7865544867
H 2.6085001173 0.2182053429 -2.4568883812
H 4.0584811306 -0.3049276737 -1.5123142018
C -0.9946275068 3.0998685728 0.8074548002
C -1.0550428296 4.6249941024 0.6663800402
C -0.4552708076 2.6638537210 2.1791037160
H -2.0157679563 2.6723839087 0.6955144893
H -1.6189453017 5.0541663977 1.5203098577
H -1.5681908040 4.9487623168 -0.2587483890
H -0.0464061145 5.0873336303 0.6815780608
H -0.4469699895 1.5592867320 2.2919644427
H -1.1002635010 3.0703731421 2.9847065898
H 0.5709665234 3.0434540118 2.3650665538
C -0.8252988409 2.6411428247 -2.2225136615
C -2.3516494557 2.4752666136 -2.2021699883
C -0.3893045308 3.9934963514 -2.8076488512
H -0.3973576440 1.8374260025 -2.8656522395
H -2.8399913190 3.2860478007 -1.6237624230
H -2.6565975016 1.5069649356 -1.7613433361
H -2.7457686320 2.5305889840 -3.2370717547
H 0.7094900530 4.0975086681 -2.8982409633
H -0.8078297850 4.0927953402 -3.8303681967
H -0.7666580675 4.8498957079 -2.2162916505
51
step=36 E=-2803.689933965464 Eh
Co -0.0506744411 0.0221015323 -0.0818489073
P 2.1343008787 0.1555385159 -0.0490065841
P -0.0761329188 2.1915825232 -0.5580698675
O -1.9534354511 0.0242220795 0.0109823994
O 0.1215199687 -1.8367147201 0.2918648772
C -2.6991438388 -1.0008252326 0.2810792215
C -2.2167820131 -2.3045949745 0.5090489226
C -0.8531260332 -2.6628478025 0.4988923469
C -4.1777821371 -0.7145165202 0.3339683572
C -0.4356136457 -4.0872494386 0.7583178872
H -2.9521371920 -3.0936651930 0.7131158905
H -4.7731607452 -1.6090538789 0.5894982117
H -4.3783446044 0.0805833921 1.0812154156
H -4.5190748895 -0.3231396568 -0.6469390434
H -1.2974431682 -4.7743884037 0.8297463355
H 0.2437300989 -4.4320064195 -0.0472325782
H 0.1404429085 -4.1385374760 1.7061814325
C 2.6210186295 1.9305906876 0.2014894447
C 1.6879147042 2.8253519055 -0.6259089007
H 3.6897214479 2.0978429596 -0.0490674904
H 2.5072509283 2.1308073366 1.2874708669
H 1.7356094342 3.8853880388 -0.3022042362
H 1.9844271314 2.8096678591 -1.6953794316
C 2.9462712696 -0.8066734755 1.2804692388
H 2.5996854445 -0.4445038767 2.2678896964
H 2.6367180560 -1.8638322858 1.1689068756
H 4.0501749041 -0.7262198942 1.2229621814
C 2.9593873904 -0.4007258267 -1.5960361557
H 2.6859049513 -1.4591300234 -1.7772178806
H 2.6106049878 0.1998535999 -2.4587171158
H 4.0617601134 -0.3172757657 -1.5118972333
C -0.9890064878 3.0896578206 0.8086448502
C -1.0479535236 4.6153509301 0.6756893823
C -0.4446420517 2.6481891285 2.1767677423
H -2.0108494616 2.6635688650 0.6981054848
H -1.6079009871 5.0406587684 1.5341486088
H -1.5635516589 4.9454651205 -0.2458351169
H -0.0385084363 5.0760448052 0.6903608939
H -0.4324458506 1.5431451516 2.2849457889
H -1.0886564468 3.0489926362 2.9860191280
H 0.5807401568 3.0305755655 2.3613955832
C -0.8310840698 2.6376715388 -2.2234998263
C -2.3579982516 2.4747914501 -2.1971402475
C -0.3957998305 3.9905444744 -2.8082076454
H -0.4092120271 1.8343225823 -2.8709044640
H -2.8426347857 3.2833318661 -1.6125725456
H -2.6628602607 1.5044068568 -1.7608305466
H -2.7559107254 2.5369635699 -3.2301980057
H 0.7023079582 4.0891316480 -2.9124990831
H -0.8270893955 4.0969966525 -3.8248913100
H -0.7611740952 4.8461320415 -2.2081226687
51
step=37 E=-2803.689945075488 Eh
Co -0.0474417241 0.0140153758 -0.0864274204
P 2.1363225336 0.1516031036 -0.0489817138
P -0.0767349663 2.1831552096 -0.5621626805
O -1.9505420834 0.0070357186 -0.0027791358
O 0.1310749937 -1.8441353050 0.2910388418
C -2.6928830776 -1.0204822711 0.2671232906
C -2.2058496217 -2.3212968573 0.5020760033
C -0.8407108822 -2.6738357744 0.4972841678
C -4.1731428883 -0.7408608464 0.3101317329
C -0.4181125014 -4.0963450532 0.7587769480
H -2.9382832765 -3.1128638781 0.7070347728
H -4.7649896013 -1.6342980616 0.5775059361
H -4.3806324526 0.0655215349 1.0430790497
H -4.5122534058 -0.3681088835 -0.6788217134
H -1.2783361936 -4.7825149924 0.8541933708
H 0.2418157146 -4.4477093072 -0.0602262480
H 0.1805580395 -4.1410497875 1.6926492232
C 2.6224821177 1.9280532976 0.1930956294
C 1.6865583843 2.8177518467 -0.6363260873
H 3.6904559140 2.0947267498 -0.0607935386
H 2.5116246418 2.1330501594 1.2784643470
H 1.7337660235 3.8798513101 -0.3192441451
H 1.9805436643 2.7967125100 -1.7064664038
C 2.9491968256 -0.8036046661 1.2850754036
H 2.6014323047 -0.4378862914 2.2707982905
H 2.6421271005 -1.8618499374 1.1774059391
H 4.0529740258 -0.7208678267 1.2282533579
C 2.9610558261 -0.4114110259 -1.5939583917
H 2.6890534072 -1.4711445373 -1.7694167886
H 2.6099022167 0.1841954569 -2.4591656218
H 4.0633711664 -0.3256455534 -1.5116947894
C -0.9824842207 3.0801189640 0.8108006271
C -1.0418647340 4.6061745052 0.6826657192
C -0.4302214545 2.6364595350 2.1751490122
H -2.0054818453 2.6556093826 0.7051637838
H -1.5941840689 5.0287024830 1.5474419632
H -1.5652225991 4.9395307258 -0.2332603274
H -0.0321886507 5.0666468462 0.6907957955
H -0.4138056031 1.5311999513 2.2811313782
H -1.0714615942 3.0333245957 2.9885435675
H 0.5946926592 3.0220092758 2.3554692584
C -0.8385226411 2.6318780293 -2.2232532048
C -2.3661348081 2.4727041986 -2.1901670482
C -0.4040134952 3.9845712231 -2.8089606605
H -0.4238160424 1.8278295638 -2.8742345129
H -2.8464849106 3.2804465283 -1.6010567568
H -2.6712116019 1.5013008347 -1.7562624408
H -2.7679291582 2.5394002864 -3.2214448651
H 0.6932344293 4.0785257943 -2.9256773247
H -0.8463445292 4.0961052394 -3.8203652295
H -0.7589538315 4.8399899304 -2.2023622601
51
step=38 E=-2803.689953709494 Eh
Co -0.0450553775 0.0057420444 -0.0890197420
P 2.1378748152 0.1472094619 -0.0478360874
P -0.0784241174 2.1745228031 -0.5641536922
O -1.9480951166 -0.0088837384 -0.0126666060
O 0.1390698344 -1.8520049663 0.2901464123
C -2.6875423931 -1.0387586094 0.2557781206
C -2.1967134798 -2.3375747141 0.4943147329
C -0.8302558795 -2.6849639313 0.4939364839
C -4.1691134977 -0.7649171412 0.2911232031
C -0.4033640787 -4.1061637873 0.7559636359
H -2.9267140751 -3.1316166345 0.6984117155
H -4.7578086868 -1.6568518519 0.5702839176
H -4.3820956399 0.0521605943 1.0103447123
H -4.5072456806 -0.4096576414 -0.7047097237
H -1.2617586592 -4.7919856466 0.8688448375
H 0.2417955642 -4.4619690524 -0.0730597055
H 0.2120279764 -4.1463584394 1.6789491473
C 2.6226027252 1.9250929343 0.1872098986
C 1.6838104928 2.8103924453 -0.6435029587
H 3.6899363598 2.0899948648 -0.0704232944
H 2.5144622180 2.1334359406 1.2721459454
H 1.7312300247 3.8743367655 -0.3324520606
H 1.9760363040 2.7850057544 -1.7141131715
C 2.9543999129 -0.8021019247 1.2882413607
H 2.6066259444 -0.4346499656 2.2733429296
H 2.6512901962 -1.8618092818 1.1839818353
H 4.0577916354 -0.7151717841 1.2300880193
C 2.9622838206 -0.4183945779 -1.5922468251
H 2.6929577206 -1.4792570499 -1.7647685501
H 2.6090054950 0.1744885187 -2.4584741748
H 4.0644622227 -0.3293586308 -1.5112093301
C -0.9768905700 3.0727172887 0.8128822896
C -1.0342217860 4.5990817375 0.6868551598
C -0.4187456864 2.6270835147 2.1741948600
H -2.0018281081 2.6514841640 0.7123200822
H -1.5775074682 5.0211515565 1.5575879618
H -1.5663409467 4.9340638979 -0.2233041805
H -0.0237815423 5.0580786815 0.6859712087
H -0.4012704744 1.5216235744 2.2786919162
H -1.0564210900 3.0225306335 2.9910784672
H 0.6068247083 3.0127300629 2.3505181372
C -0.8460553366 2.6238557935 -2.2222995049
C -2.3740924854 2.4670387525 -2.1828218106
C -0.4128764229 3.9760758603 -2.8098341640
H -0.4362964023 1.8189011478 -2.8752928613
H -2.8508928188 3.2748970930 -1.5909968266
H -2.6789115157 1.4955222454 -1.7490090606
H -2.7795905452 2.5352436670 -3.2125589081
H 0.6836621944 4.0683108745 -2.9337424225
H -0.8612813530 4.0888879962 -3.8184392874
H -0.7626439661 4.8317153372 -2.2005541221
51
step=39 E=-2803.689960373491 Eh
Co -0.0431288104 -0.0017060848 -0.0894105095
P 2.1396564077 0.1429314749 -0.0466968715
P -0.0798070704 2.1669986696 -0.5638120866
O -1.9459311853 -0.0206713749 -0.0172320244
O 0.1444920039 -1.8592163066 0.2895772202
C -2.6836413257 -1.0522621761 0.2488743985
C -2.1905630607 -2.3503291658 0.4873640431
C -0.8233117775 -2.6945432484 0.4898950142
C -4.1659762249 -0.7820507273 0.2803946625
C -0.3938759677 -4.1153572334 0.7503393710
H -2.9192020039 -3.1462961937 0.6887787173
H -4.7524183333 -1.6725685252 0.5687175793
H -4.3819007048 0.0427073405 0.9898025875
H -4.5045807520 -0.4392658071 -0.7197515036
H -1.2510192563 -4.8012188397 0.8723444895
H 0.2426604536 -4.4727929627 -0.0847712707
H 0.2309850625 -4.1540161286 1.6668924724
C 2.6227599441 1.9219803088 0.1837589058
C 1.6814496062 2.8038319752 -0.6472227037
H 3.6894760765 2.0852608352 -0.0774291631
H 2.5169495104 2.1324313571 1.2684386164
H 1.7297725874 3.8691136638 -0.3408881326
H 1.9723467071 2.7749126229 -1.7181579894
C 2.9607406054 -0.8028807730 1.2889915219
H 2.6140902004 -0.4352658071 2.2744333755
H 2.6609699993 -1.8637434738 1.1869198505
H 4.0636907942 -0.7122607798 1.2281768681
C 2.9635623607 -0.4216376065 -1.5918798719
H 2.6972901488 -1.4832989578 -1.7639797421
H 2.6084353267 0.1704921907 -2.4578420174
H 4.0655698789 -0.3292548221 -1.5116246960
C -0.9736971300 3.0671866435 0.8149205332
C -1.0319519447 4.5934992144 0.6871255672
C -0.4113416708 2.6228205440 2.1748875999
H -1.9995091638 2.6468772220 0.7189446071
H -1.5690604145 5.0164955219 1.5612497176
H -1.5715816258 4.9263930967 -0.2193299734
H -0.0218255389 5.0530283318 0.6777806316
H -0.3932867982 1.5173867067 2.2800337068
H -1.0464917238 3.0187114804 2.9935126864
H 0.6148112838 3.0084566480 2.3478892279
C -0.8511710259 2.6160096382 -2.2207544775
C -2.3791108050 2.4591693735 -2.1780780039
C -0.4196510102 3.9680982117 -2.8095343617
H -0.4423107693 1.8105442524 -2.8737510177
H -2.8546270016 3.2680664373 -1.5866037369
H -2.6831311058 1.4884349160 -1.7420376175
H -2.7865866667 2.5254090618 -3.2071759287
H 0.6766159668 4.0615697064 -2.9342969205
H -0.8685839757 4.0793224351 -3.8180906978
H -0.7700836423 4.8238706853 -2.2008470938
51
step=40 E=-2803.689964860390 Eh
Co -0.0407348819 -0.0081246699 -0.0893844203
P 2.1423108063 0.1393150582 -0.0467457311
P -0.0805771905 2.1607524218 -0.5629645781
O -1.9433546952 -0.0292195229 -0.0188740216
O 0.1490856217 -1.8653042233 0.2887202994
C -2.6799713564 -1.0620460266 0.2450776636
C -2.1855404321 -2.3599674125 0.4819778702
C -0.8178345296 -2.7022860669 0.4859952159
C -4.1627338360 -0.7940475069 0.2751202261
C -0.3867061115 -4.1230138721 0.7443695174
H -2.9135139618 -3.1571710037 0.6808418323
H -4.7477274831 -1.6839352230 0.5682974383
H -4.3801829004 0.0346187858 0.9794368606
H -4.5021120878 -0.4576782488 -0.7270302253
H -1.2428699023 -4.8087666304 0.8737367240
H 0.2427328910 -4.4815052792 -0.0957462674
H 0.2458795079 -4.1608405351 1.6555827716
C 2.6234697077 1.9193233023 0.1807739050
C 1.6795683724 2.7989158662 -0.6496424799
H 3.6893713967 2.0821567351 -0.0840358480
H 2.5201030386 2.1310972873 1.2653796782
H 1.7286023732 3.8649179269 -0.3459595502
H 1.9690850577 2.7679177948 -1.7209202910
C 2.9671239724 -0.8044399442 1.2879831678
H 2.6208541836 -0.4378560793 2.2739321165
H 2.6702645591 -1.8662029710 1.1865707544
H 4.0697045578 -0.7106741639 1.2253020046
C 2.9661693537 -0.4237088505 -1.5925450124
H 2.7016178924 -1.4856911705 -1.7652140009
H 2.6105157530 0.1686509149 -2.4581030688
H 4.0680695626 -0.3295857940 -1.5122538416
C -0.9724979157 3.0618569772 0.8160212442
C -1.0287063919 4.5882237661 0.6874583630
C -0.4103994876 2.6163350707 2.1756977026
H -1.9991068949 2.6431028128 0.7210289488
H -1.5630726640 5.0126462444 1.5625658613
H -1.5706612895 4.9207335552 -0.2177313390
H -0.0180479853 5.0464162084 0.6746147846
H -0.3946154837 1.5107970575 2.2802445631
H -1.0442937290 3.0133171312 2.9947529849
H 0.6167821045 2.9994235338 2.3484085367
C -0.8544767824 2.6083751959 -2.2197393020
C -2.3820224596 2.4502098961 -2.1751621529
C -0.4247678449 3.9605727022 -2.8094098904
H -0.4441830147 1.8029544348 -2.8720179436
H -2.8573110406 3.2601289129 -1.5848250305
H -2.6849165458 1.4803640486 -1.7364754956
H -2.7909014340 2.5137108584 -3.2038903065
H 0.6714939246 4.0569043344 -2.9316061544
H -0.8714314892 4.0689082320 -3.8192832879
H -0.7789263648 4.8162956860 -2.2028247647
51
step=41 E=-2803.689969119563 Eh
Co -0.0374201401 -0.0152374970 -0.0895106856
P 2.1459255637 0.1352539328 -0.0481316660
P -0.0805448077 2.1540362253 -0.5621717154
O -1.9399966158 -0.0378875863 -0.0194143043
O 0.1543306818 -1.8720229512 0.2874655976
C -2.6756584956 -1.0719437177 0.2422809160
C -2.1799109546 -2.3697960758 0.4769357394
C -0.8118575249 -2.7105906434 0.4818346928
C -4.1587698685 -0.8058487169 0.2718693632
C -0.3792614724 -4.1314331188 0.7370529895
H -2.9073061348 -3.1681298114 0.6732924058
H -4.7423459204 -1.6952913711 0.5692014673
H -4.3771752472 0.0257806785 0.9723427024
H -4.4992285593 -0.4746722105 -0.7316893914
H -1.2346034423 -4.8168764327 0.8732661981
H 0.2429418784 -4.4904035476 -0.1083133190
H 0.2609757210 -4.1693029704 1.6428249888
C 2.6251603139 1.9162053058 0.1768571510
C 1.6784321176 2.7936175785 -0.6525962941
H 3.6900205966 2.0797951192 -0.0916677392
H 2.5245737418 2.1294966836 1.2614097370
H 1.7278128269 3.8601449573 -0.3509888582
H 1.9659381155 2.7607040772 -1.7243628242
C 2.9734814974 -0.8067666098 1.2860121537
H 2.6271621011 -0.4411227961 2.2722750032
H 2.6786573392 -1.8691368346 1.1847641896
H 4.0758197173 -0.7109483716 1.2222283400
C 2.9697571348 -0.4268199843 -1.5942815963
H 2.7060994323 -1.4889463530 -1.7674157810
H 2.6138383921 0.1657040552 -2.4595944891
H 4.0715931162 -0.3318296898 -1.5139253808
C -0.9723005651 3.0547242682 0.8170396609
C -1.0284690080 4.5810516110 0.6879535258
C -0.4110806120 2.6086186852 2.1769004763
H -1.9988296878 2.6358508724 0.7217572373
H -1.5628668161 5.0061634700 1.5626865759
H -1.5704131913 4.9129804803 -0.2175064472
H -0.0178275912 5.0391096186 0.6745013688
H -0.3971452936 1.5030507114 2.2811541018
H -1.0446049013 3.0065498801 2.9957650490
H 0.6167339307 2.9898604008 2.3499623261
C -0.8566926965 2.6004801724 -2.2188486616
C -2.3836558617 2.4398370706 -2.1736867755
C -0.4292949511 3.9533690190 -2.8085729485
H -0.4438734286 1.7957485867 -2.8704416117
H -2.8597915863 3.2506173698 -1.5851618084
H -2.6849840955 1.4707655957 -1.7323143037
H -2.7932371785 2.5002020664 -3.2023371488
H 0.6670650516 4.0536299072 -2.9265698313
H -0.8724814888 4.0587899591 -3.8202784188
H -0.7888905896 4.8085177046 -2.2043612161
51
step=42 E=-2803.689972020494 Eh
Co -0.0330278823 -0.0234363674 -0.0907117745
P 2.1503799295 0.1306583112 -0.0511231486
P -0.0801826737 2.1463037119 -0.5624364852
O -1.9356581522 -0.0482593866 -0.0202365932
O 0.1613331912 -1.8797988647 0.2851105849
C -2.6699256303 -1.0838723313 0.2393965829
C -2.1723395341 -2.3813892391 0.4719361787
C -0.8038321207 -2.7202660573 0.4771399883
C -4.1534574896 -0.8201295768 0.2684999739
C -0.3692294487 -4.1410500483 0.7290486881
H -2.8988213844 -3.1809716965 0.6665634883
H -4.7354430233 -1.7095381487 0.5690354548
H -4.3731134346 0.0136910501 0.9659068758
H -4.4947182320 -0.4933411018 -0.7362583789
H -1.2233989037 -4.8260601979 0.8743846401
H 0.2437003420 -4.5008596975 -0.1227987634
H 0.2807763995 -4.1785948095 1.6277675618
C 2.6273342933 1.9126225944 0.1713251598
C 1.6774008487 2.7879880759 -0.6569275559
H 3.6909931371 2.0781271030 -0.1008062839
H 2.5297333570 2.1274581192 1.2558596156
H 1.7262686635 3.8548448857 -0.3565154148
H 1.9623460151 2.7539511500 -1.7293438158
C 2.9795860515 -0.8091002293 1.2835338354
H 2.6320955511 -0.4440858998 2.2695968430
H 2.6866855337 -1.8720230175 1.1822489682
H 4.0817789629 -0.7115089845 1.2200054018
C 2.9746096793 -0.4319681268 -1.5968134472
H 2.7107212548 -1.4940656216 -1.7698271282
H 2.6191021079 0.1603811121 -2.4624132888
H 4.0764326497 -0.3372521160 -1.5160802002
C -0.9724860254 3.0449580660 0.8175135558
C -1.0260328375 4.5715071889 0.6906505397
C -0.4141197305 2.5952815555 2.1773932953
H -1.9992038313 2.6271592009 0.7196102705
H -1.5618157294 4.9964902626 1.5645756251
H -1.5648912529 4.9057398504 -0.2158443092
H -0.0145758213 5.0277970291 0.6801691346
H -0.4037804535 1.4895340759 2.2797666715
H -1.0474763320 2.9938783224 2.9960606547
H 0.6146551796 2.9730953226 2.3522530181
C -0.8590751764 2.5915552293 -2.2184885842
C -2.3855168311 2.4284312659 -2.1721506350
C -0.4343074807 3.9452933006 -2.8082316397
H -0.4444761231 1.7878546870 -2.8702414498
H -2.8623366915 3.2396142124 -1.5846894391
H -2.6850827345 1.4597268106 -1.7288388108
H -2.7961515305 2.4865907304 -3.2005181664
H 0.6621355094 4.0498292167 -2.9218900249
H -0.8740185739 4.0479283532 -3.8217317098
H -0.7996910486 4.7996421319 -2.2063257790
51
step=43 E=-2803.689974307291 Eh
Co -0.0281136532 -0.0328882865 -0.0928893539
P 2.1549940000 0.1251092134 -0.0553491705
P -0.0796251235 2.1372778678 -0.5636476605
O -1.9308307354 -0.0608599951 -0.0214093719
O 0.1696554091 -1.8890460140 0.2814302313
C -2.6632537523 -1.0984011792 0.2361483299
C -2.1632067456 -2.3952984534 0.4665737003
C -0.7941067144 -2.7317414000 0.4715440024
C -4.1473244134 -0.8375971749 0.2648327849
C -0.3570519767 -4.1523933725 0.7195939107
H -2.8882853203 -3.1964672439 0.6599062354
H -4.7272893876 -1.7269010721 0.5695964074
H -4.3684202274 -0.0009986634 0.9583617461
H -4.4895566706 -0.5165855437 -0.7414744446
H -1.2098791268 -4.8372595444 0.8731552025
H 0.2469536009 -4.5123422668 -0.1386302074
H 0.3021879343 -4.1900657509 1.6114474095
C 2.6296338415 1.9080962443 0.1647370862
C 1.6766103927 2.7813870922 -0.6622732301
H 3.6922184979 2.0760827908 -0.1100548379
H 2.5345249558 2.1242726898 1.2492586464
H 1.7242235872 3.8484878146 -0.3626220382
H 1.9587208911 2.7467729951 -1.7354243527
C 2.9849283998 -0.8118279451 1.2808769230
H 2.6359160416 -0.4464663568 2.2662645934
H 2.6934589889 -1.8752026554 1.1800705445
H 4.0870728024 -0.7130572007 1.2183650358
C 2.9797390247 -0.4391829355 -1.6001075124
H 2.7152026366 -1.5012605986 -1.7723184943
H 2.6246272697 0.1524765042 -2.4663587531
H 4.0815625017 -0.3450765509 -1.5190864410
C -0.9726793728 3.0328680777 0.8179263035
C -1.0252519927 4.5596813601 0.6943443747
C -0.4162730550 2.5797274567 2.1774549859
H -1.9992526245 2.6154780903 0.7173335283
H -1.5633388161 4.9832004646 1.5675467207
H -1.5606310439 4.8965672971 -0.2132764953
H -0.0134501049 5.0152780267 0.6881462293
H -0.4089254162 1.4738373401 2.2781008167
H -1.0492936988 2.9786329380 2.9962395531
H 0.6132514549 2.9548336605 2.3536014084
C -0.8616965806 2.5821517178 -2.2182196239
C -2.3877345345 2.4163905417 -2.1706378172
C -0.4399696490 3.9371003389 -2.8075099670
H -0.4464242554 1.7798790249 -2.8712440049
H -2.8654008169 3.2273538037 -1.5835623434
H -2.6852445229 1.4475074848 -1.7263205473
H -2.7993760196 2.4732208444 -3.1986810954
H 0.6565032925 4.0460337314 -2.9171651116
H -0.8765326979 4.0375355801 -3.8225892276
H -0.8111075773 4.7902892848 -2.2074296116
51
step=44 E=-2803.689974831081 Eh
Co -0.0231720309 -0.0431187390 -0.0962149510
P 2.1593500526 0.1189250318 -0.0604067349
P -0.0793923571 2.1272711498 -0.5660293612
O -1.9259000658 -0.0753899328 -0.0234094094
O 0.1789364963 -1.8993499831 0.2761408043
C -2.6558969599 -1.1151838123 0.2323257816
C -2.1527999206 -2.4111907013 0.4608652676
C -0.7829417881 -2.7445783542 0.4650105574
C -4.1406157218 -0.8579801935 0.2604555766
C -0.3427663459 -4.1648370804 0.7095886463
H -2.8759910227 -3.2142572246 0.6534308926
H -4.7182400565 -1.7474247585 0.5692668380
H -4.3635979615 -0.0187172329 0.9500480968
H -4.4837531318 -0.5428601534 -0.7474340206
H -1.1938256252 -4.8501383171 0.8707860941
H 0.2531392111 -4.5245989992 -0.1544379479
H 0.3249954120 -4.2022016063 1.5950061521
C 2.6313640493 1.9028768232 0.1577879813
C 1.6755863906 2.7743501718 -0.6680471239
H 3.6932178904 2.0733978614 -0.1182697817
H 2.5376684390 2.1196171599 1.2423553723
H 1.7212680668 3.8415407252 -0.3683786376
H 1.9552115234 2.7402082757 -1.7418822420
C 2.9895523440 -0.8147003948 1.2780861490
H 2.6387729284 -0.4483313703 2.2624780058
H 2.6995884497 -1.8785843317 1.1783192565
H 4.0916607768 -0.7146156434 1.2170096111
C 2.9848916729 -0.4476689924 -1.6038148662
H 2.7195849364 -1.5097797655 -1.7746764587
H 2.6303163453 0.1429366312 -2.4710299395
H 4.0867120557 -0.3542406677 -1.5223943456
C -0.9725869345 3.0191414909 0.8179525094
C -1.0228954815 4.5464042970 0.6992981406
C -0.4181700641 2.5608773340 2.1765332335
H -1.9994723768 2.6032872271 0.7144617432
H -1.5629704662 4.9677121150 1.5723388026
H -1.5546050417 4.8873846107 -0.2089521188
H -0.0103909471 5.0005757463 0.6980703719
H -0.4145952315 1.4547504857 2.2746023495
H -1.0502689168 2.9598456493 2.9960221520
H 0.6124073144 2.9324155748 2.3539876533
C -0.8651587618 2.5724534029 -2.2182579622
C -2.3910124168 2.4047128140 -2.1683770526
C -0.4464610599 3.9285774950 -2.8071703207
H -0.4508731515 1.7716792436 -2.8736831768
H -2.8688666499 3.2147824960 -1.5802385867
H -2.6864969367 1.4350964849 -1.7242577221
H -2.8042076966 2.4616835030 -3.1957829885
H 0.6499527746 4.0413610034 -2.9139969406
H -0.8808165592 4.0273192487 -3.8233604743
H -0.8222810356 4.7806125316 -2.2083261665
51
step=45 E=-2803.689975786993 Eh
Co -0.0205666403 -0.0496539027 -0.0989115634
P 2.1614559564 0.1145966121 -0.0639293470
P -0.0794119093 2.1206526532 -0.5681494352
O -1.9232112026 -0.0850469295 -0.0246193830
O 0.1845637439 -1.9063105077 0.2713933966
C -2.6514972923 -1.1262878132 0.2301981553
C -2.1463149954 -2.4217256596 0.4572513479
C -0.7759453607 -2.7530832364 0.4600705050
C -4.1366199355 -0.8714213681 0.2587658115
C -0.3336990878 -4.1730645736 0.7025592117
H -2.8681055864 -3.2261328031 0.6495119561
H -4.7126498820 -1.7612178317 0.5695619155
H -4.3605634048 -0.0310923104 0.9466906441
H -4.4807020534 -0.5591066504 -0.7496890201
H -1.1837501600 -4.8594808447 0.8643735439
H 0.2610362854 -4.5313069671 -0.1629229746
H 0.3356113003 -4.2107004328 1.5867718993
C 2.6317959756 1.8989428440 0.1544002191
C 1.6751187575 2.7698152442 -0.6708304557
H 3.6937136756 2.0708535287 -0.1205252966
H 2.5373581846 2.1148814195 1.2390862810
H 1.7191383507 3.8368393730 -0.3702609301
H 1.9540232038 2.7370249775 -1.7449129109
C 2.9915869290 -0.8174237929 1.2758472525
H 2.6402033183 -0.4500199199 2.2596543236
H 2.7021221241 -1.8815179631 1.1770484295
H 4.0936945267 -0.7168546749 1.2154457060
C 2.9873848543 -0.4529922399 -1.6066943193
H 2.7218417024 -1.5151897807 -1.7766543290
H 2.6328454611 0.1369331337 -2.4744027285
H 4.0891972616 -0.3596950352 -1.5252210010
C -0.9726444510 3.0099736440 0.8176714900
C -1.0231984523 4.5374983085 0.7019918606
C -0.4184231651 2.5492561447 2.1754319424
H -1.9995505328 2.5944766705 0.7131430061
H -1.5647825517 4.9567399440 1.5751014822
H -1.5534051075 4.8803322781 -0.2064254394
H -0.0107913215 4.9919535750 0.7036345732
H -0.4165024569 1.4430100914 2.2723298920
H -1.0496854695 2.9481275911 2.9956341638
H 0.6126791178 2.9192245983 2.3530604924
C -0.8673181228 2.5669940568 -2.2184280402
C -2.3931724665 2.3980802212 -2.1670132210
C -0.4505117791 3.9240481367 -2.8066507654
H -0.4543895309 1.7673887204 -2.8760889934
H -2.8711141531 3.2069214418 -1.5772912499
H -2.6872908879 1.4275160357 -1.7239775761
H -2.8073642431 2.4560702153 -3.1939463907
H 0.6458196144 4.0388303297 -2.9124586615
H -0.8840717601 4.0223590982 -3.8232195166
H -0.8284923257 4.7752221789 -2.2079360830
51
step=46 E=-2803.689975844752 Eh
Co -0.0180927108 -0.0570329126 -0.1024125746
P 2.1634871276 0.1096391711 -0.0674422820
P -0.0797238811 2.1130284701 -0.5707219522
O -1.9205567321 -0.0962375053 -0.0269146967
O 0.1905697698 -1.9142677850 0.2652377279
C -2.6467937980 -1.1390133679 0.2272273578
C -2.1392236192 -2.4338061803 0.4528052996
C -0.7682684786 -2.7627653586 0.4540125652
C -4.1323733625 -0.8868760155 0.2565448967
C -0.3234304577 -4.1822627560 0.6948333828
H -2.8593893903 -3.2397440859 0.6447681061
H -4.7065810627 -1.7774270050 0.5685588152
H -4.3574752281 -0.0461187138 0.9435369903
H -4.4776494004 -0.5764021336 -0.7520992780
H -1.1721632314 -4.8704946540 0.8558914293
H 0.2719480839 -4.5384667364 -0.1710536290
H 0.3459868270 -4.2196944917 1.5789890802
C 2.6317347788 1.8942919383 0.1517584741
C 1.6744822296 2.7647184104 -0.6729895518
H 3.6940103429 2.0672963828 -0.1210717679
H 2.5355222869 2.1086394059 1.2366109644
H 1.7167234380 3.8314730622 -0.3711209895
H 1.9534899281 2.7337896425 -1.7471194830
C 2.9940950384 -0.8211248949 1.2730123423
H 2.6425536192 -0.4530061545 2.2565151200
H 2.7054625322 -1.8855139676 1.1751721050
H 4.0961265184 -0.7195917984 1.2126767099
C 2.9897829510 -0.4580583121 -1.6098818587
H 2.7246638064 -1.5204892259 -1.7790314706
H 2.6349311725 0.1312147185 -2.4779067261
H 4.0915575442 -0.3642000756 -1.5284947444
C -0.9725095471 2.9997111046 0.8171817450
C -1.0232503801 4.5275155106 0.7046126698
C -0.4180445374 2.5362409777 2.1738302877
H -1.9996237876 2.5847695929 0.7123201377
H -1.5660246689 4.9445746156 1.5780433993
H -1.5526453097 4.8720604039 -0.2035907201
H -0.0109682425 4.9822997604 0.7085237037
H -0.4176620526 1.4298217497 2.2691837707
H -1.0481919442 2.9347185718 2.9951025556
H 0.6136607629 2.9045164887 2.3514871605
C -0.8700197264 2.5611077175 -2.2188092741
C -2.3959130658 2.3913918839 -2.1650859693
C -0.4550259150 3.9190398518 -2.8063536513
H -0.4588024795 1.7626009654 -2.8788777539
H -2.8733987160 3.1986728994 -1.5728809436
H -2.6887102342 1.4196812526 -1.7236232947
H -2.8116339215 2.4511143274 -3.1912855826
H 0.6411119835 4.0350419921 -2.9127675887
H -0.8891800901 4.0174975525 -3.8226458757
H -0.8335452535 4.7694319191 -2.2068848039
51
step=47 E=-2803.689975881311 Eh
Co -0.0164237153 -0.0622820984 -0.1047518850
P 2.1650514901 0.1061204172 -0.0693475779
P -0.0798912010 2.1076415084 -0.5720833638
O -1.9187464593 -0.1038732643 -0.0288636845
O 0.1944400942 -1.9198187763 0.2609603566
C -2.6436992800 -1.1475232891 0.2249531252
C -2.1346401158 -2.4419585885 0.4495042668
C -0.7633361093 -2.7694110947 0.4497076853
C -4.1295633486 -0.8971351989 0.2550179219
C -0.3168270960 -4.1886085753 0.6894103970
H -2.8538176646 -3.2488639037 0.6411162858
H -4.7025746871 -1.7883374997 0.5673669598
H -4.3553541468 -0.0565194668 0.9419585063
H -4.4757949576 -0.5871358837 -0.7534622017
H -1.1647047033 -4.8781789944 0.8492715688
H 0.2797215520 -4.5432401936 -0.1763096215
H 0.3519766713 -4.2259127834 1.5740547305
C 2.6317596155 1.8909702618 0.1507152663
C 1.6740939909 2.7610680732 -0.6737035663
H 3.6942296715 2.0645107284 -0.1209988777
H 2.5344040468 2.1041933017 1.2356819160
H 1.7153874218 3.8276455122 -0.3710824268
H 1.9535610070 2.7311780467 -1.7477435422
C 2.9966544580 -0.8243539875 1.2706924156
H 2.6453475062 -0.4565521144 2.2544026417
H 2.7089303042 -1.8889906248 1.1729880775
H 4.0985647887 -0.7217747413 1.2098128246
C 2.9914856867 -0.4604872538 -1.6120725687
H 2.7272343454 -1.5231267901 -1.7812309793
H 2.6360853287 0.1286901305 -2.4799242423
H 4.0932086318 -0.3656826233 -1.5308728699
C -0.9724540734 2.9929004620 0.8168913329
C -1.0236648432 4.5208250428 0.7058118055
C -0.4177982731 2.5280235607 2.1729651345
H -1.9996409880 2.5780636122 0.7121889559
H -1.5671947716 4.9367666014 1.5793133179
H -1.5528790646 4.8658948704 -0.2022847210
H -0.0115893829 4.9760377187 0.7106532426
H -0.4179871677 1.4214890554 2.2672862822
H -1.0474829294 2.9260434013 2.9948182968
H 0.6141693347 2.8954971142 2.3507921963
C -0.8716916680 2.5568087977 -2.2191127602
C -2.3974861157 2.3863771672 -2.1637781350
C -0.4579770644 3.9153105804 -2.8062124326
H -0.4608645448 1.7588859455 -2.8801595124
H -2.8746367320 3.1926934729 -1.5699866073
H -2.6893323983 1.4140164774 -1.7231022442
H -2.8144020634 2.4470256388 -3.1894334105
H 0.6379502783 4.0318262732 -2.9138990916
H -0.8933309827 4.0141064559 -3.8219516371
H -0.8360573294 4.7652072696 -2.2057784375
51
step=48 E=-2803.689976452619 Eh
Co -0.0155598741 -0.0648406162 -0.1056330147
P 2.1660447955 0.1044561501 -0.0698952262
P -0.0799093406 2.1051338457 -0.5721955818
O -1.9178360284 -0.1071249777 -0.0297696930
O 0.1960116567 -1.9223888050 0.2591148004
C -2.6423621042 -1.1510398391 0.2238711830
C -2.1328178018 -2.4454219733 0.4478429541
C -0.7614149037 -2.7724037458 0.4476736648
C -4.1283200466 -0.9012663240 0.2543915819
C -0.3143033195 -4.1915306602 0.6867657661
H -2.8517212900 -3.2526199663 0.6392328115
H -4.7008728835 -1.7928268897 0.5665490848
H -4.3543131123 -0.0610122098 0.9417259362
H -4.4750379560 -0.5909299756 -0.7538212381
H -1.1618742236 -4.8816641349 0.8458344597
H 0.2829856938 -4.5453685831 -0.1787547678
H 0.3539832767 -4.2288917946 1.5718157510
C 2.6319043210 1.8894035449 0.1507561615
C 1.6739052596 2.7593225515 -0.6734468862
H 3.6943211404 2.0632699807 -0.1209662025
H 2.5343442823 2.1022129300 1.2357767018
H 1.7149976157 3.8258163621 -0.3705703717
H 1.9536960517 2.7296862264 -1.7473918080
C 2.9986045702 -0.8262791966 1.2693082266
H 2.6475280038 -0.4593440237 2.2534155122
H 2.7115932883 -1.8910707558 1.1711435518
H 4.1004089183 -0.7229140940 1.2078294165
C 2.9926293459 -0.4607818262 -1.6130445970
H 2.7291513540 -1.5235216946 -1.7827583079
H 2.6368496621 0.1286790352 -2.4805322255
H 4.0943016798 -0.3651996029 -1.5318784209
C -0.9725484672 2.9899927286 0.8169067641
C -1.0237964903 4.5179091272 0.7059255922
C -0.4180553279 2.5247510345 2.1729546934
H -1.9997333262 2.5751012014 0.7123277823
H -1.5676306812 4.9338641807 1.5792277042
H -1.5528767351 4.8628754167 -0.2022987788
H -0.0117677883 4.9731656500 0.7108902629
H -0.4183525678 1.4181740009 2.2668161671
H -1.0478176208 2.9225496463 2.9948477454
H 0.6139517335 2.8919776232 2.3510965416
C -0.8723238938 2.5544627224 -2.2192553209
C -2.3979534683 2.3835848469 -2.1631134745
C -0.4593076374 3.9131133091 -2.8064081318
H -0.4609752175 1.7565782629 -2.8800591698
H -2.8749261746 3.1897471059 -1.5689491354
H -2.6893550971 1.4111666921 -1.7223047367
H -2.8155477844 2.4441898239 -3.1885014789
H 0.6364696584 4.0299124424 -2.9149274907
H -0.8954763136 4.0118762402 -3.8217979020
H -0.8370549289 4.7628673197 -2.2055591126
