42
1 2 Before single point calculation
Co 0.000000000 0.000000000 0.000000000
P 2.159432326 0.000000000 0.049528265
P 0.000000000 2.180000108 -0.050000003
O -1.880000077 0.000000000 0.050000003
O 0.000000000 -1.880000077 -0.050000003
C -2.749999990 -0.850000067 0.050000003
C -2.000000039 -2.000000039 0.000000000
C -0.850000067 -2.749999990 -0.050000003
C -4.199999930 -0.649999962 0.100000005
C -0.649999962 -4.199999930 -0.100000005
H -2.250000107 -2.250000107 1.049999982
H -4.650000102 -1.200000124 0.899999967
H -4.500000213 0.400000020 0.250000005
H -4.700000066 -1.000000019 -0.825000022
H -1.200000124 -4.650000102 -0.899999967
H 0.400000020 -4.500000213 -0.250000005
H -1.000000019 -4.700000066 0.825000022
C 2.050000002 1.710000025 0.620000035
C 1.190000106 2.539999994 1.520000065
C 0.540000018 3.540000013 0.579999963
H 3.020000094 2.130000145 0.930000020
H 1.600000081 1.630000009 -0.380000016
H 1.830000114 3.079999948 2.230000071
H 0.390000034 1.940000058 1.980000003
H 1.290000032 4.300000361 0.310000017
H -0.349999994 4.030000257 0.990000001
C 3.619999903 -0.850000067 0.850000067
H 3.849999936 -0.430000011 1.840000131
H 3.300000089 -1.899999986 1.019999992
H 4.479999925 -0.879999994 0.160000002
C 2.900000132 -1.100000072 -1.299999924
H 3.020000094 -2.189999999 -1.169999944
H 2.140000036 -0.890000012 -2.069999911
H 3.840000044 -0.649999962 -1.650000044
C -0.820000013 3.599999868 0.899999967
H -1.140000017 3.200000163 1.870000059
H -0.109999999 4.429999962 1.080000036
H -1.690000116 3.970000150 0.340000008
C -1.150000035 2.900000132 -1.299999924
H -1.159999927 1.799999934 -1.240000069
H -0.519999982 3.220000198 -2.140000036
H -2.150000180 3.319999872 -1.479999993
42
step=1 E=-2676.018841850480 Eh
Co 0.0000000000 0.0000000000 0.0000000000
P 2.1594320928 0.0000000000 0.0495282617
P 0.0000000000 2.1799999992 -0.0500000020
O -1.8800000031 0.0000000000 0.0500000020
O 0.0000000000 -1.8800000031 -0.0500000020
C -2.7500000039 -0.8500000022 0.0500000020
C -2.0000000005 -2.0000000005 0.0000000000
C -0.8500000022 -2.7500000039 -0.0500000020
C -4.2000000036 -0.6499999995 0.0999999987
C -0.6499999995 -4.2000000036 -0.0999999987
H -2.2499999999 -2.2499999999 1.0499999996
H -4.6500000004 -1.2000000003 0.8999999989
H -4.4999999997 0.4000000001 0.2499999994
H -4.7000000024 -1.0000000029 -0.8249999985
H -1.2000000003 -4.6500000004 -0.8999999989
H 0.4000000001 -4.4999999997 -0.2499999994
H -1.0000000029 -4.7000000024 0.8249999985
C 2.0500000025 1.7099999984 0.6200000015
C 1.1900000009 2.5400000019 1.5200000003
C 0.5400000014 3.5399999995 0.5799999988
H 3.0200000020 2.1300000025 0.9300000022
H 1.6000000004 1.6299999984 -0.3800000014
H 1.8300000011 3.0800000034 2.2300000012
H 0.3900000008 1.9399999991 1.9800000018
H 1.2899999996 4.3000000023 0.3100000007
H -0.3499999981 4.0300000042 0.9899999982
C 3.6199999995 -0.8500000022 0.8500000022
H 3.8500000002 -0.4299999981 1.8400000004
H 3.2999999994 -1.9000000018 1.0200000016
H 4.4800000010 -0.8800000002 0.1600000000
C 2.8999999993 -1.1000000016 -1.2999999990
H 3.0200000020 -2.1899999985 -1.1700000023
H 2.1400000018 -0.8899999995 -2.0700000011
H 3.8400000009 -0.6499999995 -1.6500000024
C -0.8199999989 3.6000000008 0.8999999989
H -1.1399999989 3.2000000007 1.8699999984
H -0.1099999980 4.4300000043 1.0800000029
H -1.6899999997 3.9700000029 0.3399999988
C -1.1499999983 2.8999999993 -1.2999999990
H -1.1600000029 1.8000000031 -1.2400000029
H -0.5200000028 3.2199999994 -2.1400000018
H -2.1500000012 3.3200000034 -1.4800000030
