51
1 2 Before single point calculation
Co 0.000000000 0.000000000 0.000000000
P 2.159432326 0.000000000 0.049528265
P 0.000000000 2.180000108 -0.050000003
O -1.880000077 0.000000000 0.050000003
O 0.000000000 -1.880000077 -0.050000003
C -2.749999990 -0.850000067 0.050000003
C -2.000000039 -2.000000039 0.000000000
C -0.850000067 -2.749999990 -0.050000003
C -4.199999930 -0.649999962 0.100000005
C -0.649999962 -4.199999930 -0.100000005
H -2.250000107 -2.250000107 1.049999982
H -4.650000102 -1.200000124 0.899999967
H -4.500000213 0.400000020 0.250000005
H -4.700000066 -1.000000019 -0.825000022
H -1.200000124 -4.650000102 -0.899999967
H 0.400000020 -4.500000213 -0.250000005
H -1.000000019 -4.700000066 0.825000022
C 2.050000002 1.549999992 0.850000067
C 1.250000087 2.250000107 -0.250000005
H 3.050000021 1.899999986 1.169999944
H 1.520000065 1.389999959 1.799999934
H 1.790000042 3.140000056 0.100000005
H 1.269999997 2.130000145 -1.340000122
C 3.619999903 -0.850000067 0.850000067
C 4.920000206 -1.039999965 0.060000005
H 3.849999936 -0.430000011 1.840000131
H 3.300000089 -1.899999986 1.019999992
H 5.720000121 -1.590000064 0.579999963
H 5.269999948 -0.060000005 -0.300000031
H 4.760000425 -1.610000099 -0.860000022
C 2.900000132 -1.100000072 -1.299999924
C 4.249999893 -0.699999988 -1.930000040
H 3.020000094 -2.189999999 -1.169999944
H 2.140000036 -0.890000012 -2.069999911
H 4.760000425 -1.490000011 -2.490000030
H 4.930000098 -0.380000016 -1.129999999
H 4.120000039 0.160000002 -2.599999848
C -0.820000013 3.599999868 0.899999967
C -1.980000003 4.120000039 0.050000003
H -1.140000017 3.200000163 1.870000059
H -0.109999999 4.429999962 1.080000036
H -2.589999957 4.790000100 0.670000061
H -2.630000280 3.300000089 -0.270000009
H -1.669999954 4.690000174 -0.839999986
C -1.150000035 2.900000132 -1.299999924
C -2.539999994 3.400000268 -1.749999971
H -1.159999927 1.799999934 -1.240000069
H -0.519999982 3.220000198 -2.140000036
H -2.539999994 4.500000213 -1.860000041
H -3.270000162 3.099999984 -0.980000047
H -2.849999916 2.970000131 -2.710000171
51
step=1 E=-2802.414834659473 Eh
Co 0.0000000000 0.0000000000 0.0000000000
P 2.1594320928 0.0000000000 0.0495282617
P 0.0000000000 2.1799999992 -0.0500000020
O -1.8800000031 0.0000000000 0.0500000020
O 0.0000000000 -1.8800000031 -0.0500000020
C -2.7500000039 -0.8500000022 0.0500000020
C -2.0000000005 -2.0000000005 0.0000000000
C -0.8500000022 -2.7500000039 -0.0500000020
C -4.2000000036 -0.6499999995 0.0999999987
C -0.6499999995 -4.2000000036 -0.0999999987
H -2.2499999999 -2.2499999999 1.0499999996
H -4.6500000004 -1.2000000003 0.8999999989
H -4.4999999997 0.4000000001 0.2499999994
H -4.7000000024 -1.0000000029 -0.8249999985
H -1.2000000003 -4.6500000004 -0.8999999989
H 0.4000000001 -4.4999999997 -0.2499999994
H -1.0000000029 -4.7000000024 0.8249999985
C 2.0500000025 1.5499999984 0.8500000022
C 1.2500000023 2.2499999999 -0.2499999994
H 3.0500000000 1.9000000018 1.1700000023
H 1.5200000003 1.3899999983 1.8000000031
H 1.7899999984 3.1399999994 0.0999999987
H 1.2700000010 2.1300000025 -1.3400000016
C 3.6199999995 -0.8500000022 0.8500000022
C 4.9200000038 -1.0400000002 0.0600000013
H 3.8500000002 -0.4299999981 1.8400000004
H 3.2999999994 -1.9000000018 1.0200000016
H 5.7200000040 -1.5900000010 0.5799999988
H 5.2700000019 -0.0600000013 -0.3000000014
H 4.7600000037 -1.6099999997 -0.8600000015
C 2.8999999993 -1.1000000016 -1.2999999990
C 4.2500000003 -0.7000000015 -1.9299999998
H 3.0200000020 -2.1899999985 -1.1700000023
H 2.1400000018 -0.8899999995 -2.0700000011
H 4.7600000037 -1.4900000023 -2.4899999999
H 4.9300000031 -0.3800000014 -1.1299999996
H 4.1200000036 0.1600000000 -2.6000000032
C -0.8199999989 3.6000000008 0.8999999989
C -1.9800000018 4.1200000036 0.0500000020
H -1.1399999989 3.2000000007 1.8699999984
H -0.1099999980 4.4300000043 1.0800000029
H -2.5899999986 4.7900000018 0.6699999982
H -2.6300000013 3.2999999994 -0.2699999981
H -1.6700000010 4.6900000031 -0.8400000028
C -1.1499999983 2.8999999993 -1.2999999990
C -2.5400000019 3.4000000034 -1.7500000011
H -1.1600000029 1.8000000031 -1.2400000029
H -0.5200000028 3.2199999994 -2.1400000018
H -2.5400000019 4.4999999997 -1.8599999991
H -3.2700000014 3.1000000020 -0.9799999989
H -2.8500000026 2.9700000000 -2.7100000013
51
step=2 E=-2802.812249269415 Eh
Co 0.0403393003 0.0384272767 -0.0163558556
P 2.1894085300 0.0169412647 0.0342289207
P -0.0044245264 2.2023984350 -0.0596336937
O -1.8488158381 0.0733196270 0.0323604818
O 0.0369713303 -1.8513281861 -0.0616350939
C -2.7346694771 -0.8001864535 0.0344047758
C -2.0381699548 -2.0022462248 -0.0097081694
C -0.8515525736 -2.7212716654 -0.0594958684
C -4.1828499172 -0.5647937435 0.0831110395
C -0.6427199311 -4.1736618514 -0.1080041906
H -2.2925540844 -2.2719157435 1.0446073117
H -4.6493996372 -1.1053488591 0.8916162794
H -4.4525024067 0.4950500011 0.2278938652
H -4.6881158546 -0.9077808269 -0.8421271669
H -1.1955597485 -4.6290594185 -0.9141420081
H 0.4115314270 -4.4621189878 -0.2570857190
H -0.9901542044 -4.6741828243 0.8185366065
C 2.1416671802 1.5727238572 0.8361008912
C 1.3549869819 2.2938682588 -0.2793905766
H 3.1485136497 1.9107581700 1.1545024222
H 1.6091358676 1.4199283047 1.7877292293
H 1.9154078352 3.1854345128 0.0604967991
H 1.3821688081 2.1654142824 -1.3734502983
C 3.6295962084 -0.8590076056 0.8965246745
C 4.9385842858 -1.1178717861 0.1621914376
H 3.8341273181 -0.3963289079 1.8766334009
H 3.2918083907 -1.8972754031 1.1027104405
H 5.7198657470 -1.6586789917 0.7267032341
H 5.2950354660 -0.1303181509 -0.2505995745
H 4.7828311175 -1.7385063032 -0.7164900911
C 2.8890085952 -1.0839869827 -1.3564103109
C 4.2438374178 -0.6931300470 -2.0088193537
H 2.9777215795 -2.1786272093 -1.2368142760
H 2.1204854582 -0.8470148301 -2.1125674965
H 4.7305628319 -1.4858489640 -2.5912426042
H 4.9473466030 -0.4145171801 -1.1707342919
H 4.1302327813 0.1842576174 -2.6688002165
C -0.8648777061 3.5917428035 0.9538312669
C -2.0294482985 4.1291281083 0.1645770044
H -1.1600400610 3.1330126732 1.9095096307
H -0.1765588475 4.4347881353 1.1639525471
H -2.6599061545 4.7610937547 0.8143174023
H -2.6545191436 3.2768105600 -0.2147722811
H -1.7132948630 4.7503051491 -0.6786790732
C -1.1865319981 2.8583334794 -1.3725450082
C -2.6144802219 3.2976639314 -1.8137234671
H -1.1838909960 1.7503820239 -1.2979176104
H -0.5781871281 3.1716783795 -2.2367675461
H -2.6757089678 4.3874268709 -1.9685404514
H -3.3150436707 3.0095227453 -0.9841199114
H -2.9253493431 2.8157009470 -2.7562068413
51
step=3 E=-2803.210357652089 Eh
Co 0.0769816390 0.0831035453 -0.0350188811
P 2.2105870317 0.0270743613 0.0008566671
P -0.0050567772 2.2501809085 -0.0829509005
O -1.8316742132 0.1451602332 0.0218253955
O 0.0834702385 -1.8223218657 -0.0629099112
C -2.6918567554 -0.8053239373 0.0426444506
C -2.2010511088 -2.1410097445 0.0359013598
C -0.8823582425 -2.6630889452 -0.0433712359
C -4.1327233414 -0.4885005988 0.0841811484
C -0.5967568026 -4.1102202049 -0.1117082705
H -2.4955896264 -2.5647847712 1.0492716665
H -4.6350123332 -0.9970941905 0.9203588617
H -4.3215536494 0.5944210991 0.1993998336
H -4.6442697133 -0.8317614363 -0.8386592800
H -1.1563477921 -4.5860964835 -0.9288308051
H 0.4759768409 -4.3157487598 -0.2795105751
H -0.9019068305 -4.6343060376 0.8190990703
C 2.2660565144 1.6298805148 0.7803363658
C 1.4988300561 2.4206412679 -0.3472490492
H 3.2828744132 1.9662750061 1.0818770042
H 1.7196779298 1.4829685260 1.7302725315
H 2.0822215599 3.3320739309 -0.0496064737
H 1.5533731250 2.2780231443 -1.4462136668
C 3.5626560802 -0.8987499864 0.9930212840
C 4.8922395145 -1.1956483285 0.2947641586
H 3.7375048809 -0.4067920878 1.9718987309
H 3.1528917344 -1.9080681680 1.2321418932
H 5.6363453823 -1.7343580798 0.9137661783
H 5.2758489307 -0.2144670666 -0.1424489671
H 4.7450101048 -1.8313690923 -0.5836202462
C 2.8631282292 -1.0452599134 -1.4555715697
C 4.2295700305 -0.6673474564 -2.0950544725
H 2.8741425347 -2.1380710660 -1.2931054375
H 2.0958040989 -0.7981602763 -2.2174661955
H 4.6894213572 -1.4815813413 -2.6837337767
H 4.9204624561 -0.4387834300 -1.2299591838
H 4.1539261924 0.2202559254 -2.7500405788
C -0.8783500863 3.5801097800 1.0350306750
C -2.0925224532 4.0977914776 0.3015303918
H -1.1370134151 3.0782458044 1.9871482554
H -0.1828094306 4.4170610328 1.2641230993
H -2.7459165440 4.6853144746 0.9779422343
H -2.6337516537 3.2082179448 -0.0994932279
H -1.8475751546 4.7445990498 -0.5604704607
C -1.1638658893 2.8305945832 -1.5113353349
C -2.6332986889 3.1882686777 -1.8461281134
H -1.2147291703 1.7110131068 -1.5442646423
H -0.5830742299 3.1604169042 -2.3979598636
H -2.7454806466 4.2822537917 -1.9714486550
H -3.3131208832 2.8776023344 -0.9764478582
H -2.9420621966 2.6883038260 -2.7831494471
51
step=4 E=-2803.442416317497 Eh
Co 0.0673170871 0.0896133099 -0.0503225998
P 2.2068633850 0.0329619234 -0.0725136081
P 0.0234097278 2.2872336222 -0.1373211876
O -1.8465182003 0.1353099970 0.0477180229
O 0.0568543018 -1.8099760605 -0.0443240182
C -2.6438006544 -0.8739172724 0.1252874594
C -2.3766246344 -2.2772044831 0.1797043617
C -0.9782218469 -2.5698988612 0.0312162369
C -4.0868480392 -0.4909270643 0.1312551534
C -0.6357970888 -4.0183115825 -0.1074642857
H -2.8151451908 -2.9551718215 0.9447510473
H -4.6131716725 -0.9555980144 0.9878243280
H -4.2228630076 0.6050353637 0.1912896641
H -4.5924357054 -0.8653323894 -0.7817805812
H -1.2310193113 -4.4842123479 -0.9133034399
H 0.4374585962 -4.1602906155 -0.3309513766
H -0.8785107859 -4.5769572233 0.8218391103
C 2.3559564504 1.7001274255 0.6256956191
C 1.5952518170 2.5536592006 -0.4701377273
H 3.3818287164 2.0428940678 0.8784336014
H 1.8078752802 1.5734064127 1.5812220526
H 2.1855939187 3.4773188343 -0.2465959095
H 1.6649068505 2.3753160783 -1.5625013725
C 3.4032050995 -0.9022605493 1.0898527481
C 4.7696450403 -1.2126135768 0.4629661264
H 3.5098290047 -0.3530408377 2.0479272389
H 2.9281616571 -1.8728320209 1.3665977737
H 5.4679879544 -1.7052595532 1.1644400434
H 5.1772033410 -0.2636972151 0.0090505980
H 4.6638901946 -1.8964912948 -0.3922479914
C 2.8372188615 -0.9098477599 -1.6004379572
C 4.2180466857 -0.5058263698 -2.1704698461
H 2.7769834264 -1.9959180344 -1.4087099422
H 2.0703353294 -0.6538903491 -2.3630544694
H 4.6603381170 -1.3179738922 -2.7804946478
H 4.8720230442 -0.3591537372 -1.2794772601
H 4.1895200415 0.4104329136 -2.7868387396
C -0.7745039285 3.5042334517 1.1354304832
C -2.0401390290 4.0544845484 0.5212890932
H -0.9667410954 2.9118449536 2.0518854878
H -0.0549028517 4.3093563708 1.4003491878
H -2.6941533109 4.5594949125 1.2572977745
H -2.5227821176 3.1900559191 0.0091182046
H -1.8100008556 4.7785865339 -0.2787943311
C -1.0734835442 2.7113868808 -1.6698233019
C -2.5688717283 3.0146549468 -1.9496585655
H -1.1224792644 1.5943750872 -1.7485659202
H -0.4465533110 3.0160786576 -2.5314833875
H -2.7381475193 4.0951944446 -2.1208455757
H -3.2138572079 2.7595815079 -1.0502414925
H -2.8772777753 2.4564579175 -2.8523008100
51
step=5 E=-2803.567135983490 Eh
Co 0.0474434329 0.0368625847 -0.1178031093
P 2.2052356251 -0.0231970338 -0.2069849230
P 0.0378111763 2.2716362013 -0.2450992074
O -1.8635894886 0.1092548985 0.0578089278
O 0.0776240131 -1.8645839484 -0.0828878630
C -2.7020992391 -0.8661952966 0.1742124717
C -2.2852364438 -2.2191593173 0.1230520898
C -0.9267770931 -2.6661497411 0.0413620984
C -4.1882252152 -0.5254358756 0.2703278309
C -0.6218903863 -4.1668570783 0.0539219516
H -2.9113194399 -2.7307448282 0.8499711571
H -4.6554436502 -1.0585743745 1.1296964093
H -4.3529552428 0.5623282675 0.3838895250
H -4.7189768881 -0.8819740774 -0.6358910650
H -1.2200380787 -4.6931226854 -0.7206923139
H 0.4539169803 -4.3556132520 -0.1150396265
H -0.9115574774 -4.6169443327 1.0283509994
C 2.4525030382 1.7397469325 0.3494910051
C 1.6705869109 2.6821873929 -0.6542197403
H 3.4912254499 2.0869583484 0.5295884754
H 1.9224202633 1.6591358910 1.3212895626
H 2.2445466786 3.6267154691 -0.5148443848
H 1.7698256414 2.4416187285 -1.7343155612
C 3.0991769597 -0.9781498024 1.1594199112
C 4.5346774066 -1.2864280296 0.7073709482
H 3.0704991415 -0.3665316199 2.0852172003
H 2.5317499626 -1.9020610451 1.4126133766
H 5.1338670502 -1.7238643203 1.5272136430
H 4.9876160087 -0.3679808605 0.3021733343
H 4.5366682650 -2.0099747178 -0.1318169966
C 2.8285837433 -0.6381867685 -1.8456938240
C 4.2643548696 -0.1801444666 -2.1966626790
H 2.6894622004 -1.7292152100 -1.7255917456
H 2.0954385816 -0.3188641483 -2.6200918534
H 4.7154043029 -0.9169853958 -2.8937501476
H 4.8601811363 -0.2001997332 -1.2487268388
H 4.3144311421 0.8206471821 -2.6618511392
C -0.6197570264 3.3121561807 1.1889501726
C -1.9488816910 3.8921495658 0.7228050793
H -0.7392783293 2.6210534108 2.0493702170
H 0.1448848234 4.0648884229 1.4778500338
H -2.5879869504 4.2885611548 1.5316754773
H -2.4032295352 3.0878688796 0.1177106542
H -1.7662977381 4.6994978383 -0.0183629158
C -0.9664917341 2.6201192924 -1.8500738339
C -2.4604266249 3.0096903970 -2.0095162617
H -1.0011372715 1.5441995100 -2.1672025373
H -0.2939278245 3.0179158365 -2.6370215362
H -2.6052416888 4.1097334509 -2.0666846837
H -3.1101148845 2.7078898409 -1.1590706628
H -2.8047259684 2.5541104383 -2.9545431956
51
step=6 E=-2803.616460594979 Eh
Co -0.0103763912 -0.0078851350 -0.1169974398
P 2.1602801269 0.0225675466 -0.2467740683
P -0.0219315947 2.2396871652 -0.3694305601
O -1.8982454238 0.0781396393 0.0967264253
O 0.0279926562 -1.9032272202 0.0063962067
C -2.6921913596 -0.9356065375 0.2838314684
C -2.3604584079 -2.3299455528 0.3722948089
C -0.9775817470 -2.7059208870 0.2098807881
C -4.1750624567 -0.5583437126 0.3411675127
C -0.6288688920 -4.1991685402 0.2046797833
H -2.9491796427 -3.2389939112 0.4719535719
H -4.6668336644 -1.0176743166 1.2307911710
H -4.2974398634 0.5391119360 0.3731748790
H -4.6906917588 -0.9647991512 -0.5528549377
H -1.2560082348 -4.7381527911 -0.5409748124
H 0.4434650990 -4.3416455094 -0.0206256770
H -0.8531166252 -4.6455986208 1.1971138812
C 2.5747162720 1.8111676672 0.0819186913
C 1.7061414724 2.7222047028 -0.8399129535
H 3.6356540304 2.1376345548 0.1364590551
H 2.1437816288 1.8836027867 1.1021642076
H 2.2539251777 3.6869762783 -0.7982876556
H 1.8362662103 2.3528757286 -1.8832095016
C 2.8864998182 -1.0403836041 1.0909028140
C 4.3592870862 -1.3786821613 0.8257133505
H 2.7654603874 -0.4281822935 2.0098997695
H 2.2438634344 -1.9341716550 1.2166591826
H 4.8338797178 -1.8473557300 1.7111650286
H 4.9108765584 -0.4623524249 0.5590510643
H 4.4520589203 -2.0800782574 -0.0313192982
C 2.8807617631 -0.4255814253 -1.8692777747
C 4.3546229745 -0.0058131692 -2.0948189651
H 2.6991039449 -1.5222747214 -1.8113581055
H 2.1879195545 -0.0634220044 -2.6578989692
H 4.8209299089 -0.6665359322 -2.8557502937
H 4.9598595154 -0.0843061279 -1.1577306631
H 4.4206006815 1.0332148676 -2.4712843210
C -0.5293123108 3.1681126819 1.1473148811
C -1.9118147314 3.7698768338 0.8523042142
H -0.5878704097 2.4040290691 1.9523501941
H 0.2706403874 3.8853928426 1.4269403053
H -2.5057234543 4.0520506699 1.7408473188
H -2.4095981839 3.0147400124 0.1966478520
H -1.7926583569 4.6608942744 0.1950453197
C -1.0022500815 2.5705697348 -1.9733744612
C -2.4307426304 3.1547147994 -2.0457127228
H -1.0038781708 1.5892156748 -2.5164246358
H -0.2143947956 3.1280766195 -2.5265417605
H -2.4621343102 4.2582871285 -1.9177031688
H -3.1297559159 2.7693722562 -1.2904904218
H -2.8195035383 2.9262587515 -3.0571713130
51
step=7 E=-2803.631826502506 Eh
Co -0.0371252649 -0.0499424094 -0.1505755788
P 2.1437099153 0.0489923135 -0.2515724402
P -0.0663778129 2.2033265421 -0.4320908230
O -1.9359132081 0.0818002831 0.0314897004
O 0.0567991319 -1.9474873113 -0.0099439525
C -2.7420559941 -0.9177191599 0.2034178600
C -2.2811413261 -2.2501353928 0.2359806326
C -0.9579052021 -2.7304786368 0.1834135540
C -4.2188637109 -0.6010444854 0.3324940227
C -0.6641752127 -4.2108814538 0.3055680708
H -3.2244177027 -2.8422609732 0.2554913262
H -4.6585095263 -1.1095736758 1.2162360012
H -4.3669002659 0.4901434469 0.4155117057
H -4.7533808993 -0.9815087588 -0.5623057343
H -1.2578587054 -4.7799256434 -0.4397152920
H 0.4140906941 -4.3942053750 0.1524289473
H -0.9601122018 -4.5745633878 1.3114778589
C 2.6115092377 1.8132359912 0.0466760840
C 1.6912619371 2.6930263211 -0.8575294504
H 3.6796050459 2.1139478619 0.0554005148
H 2.2521255910 1.9623922423 1.0902912792
H 2.2018316195 3.6761168961 -0.8118023601
H 1.8558827863 2.3195092994 -1.8942673980
C 2.9237622137 -1.0197434495 1.0368699099
C 4.4128192678 -1.3640997370 0.8504570163
H 2.7725551176 -0.4209071691 1.9611708208
H 2.2704064278 -1.9099659897 1.1092735379
H 4.8401673878 -1.8217989129 1.7647394813
H 4.9954640780 -0.4456655708 0.6116881147
H 4.5562643209 -2.0750061163 0.0096921472
C 2.9599434917 -0.4424815884 -1.8407053554
C 4.4122978003 -0.0182034618 -2.0853925228
H 2.8270531065 -1.5498161375 -1.7964074599
H 2.2812420208 -0.1085277846 -2.6501914973
H 4.8863731872 -0.6666914960 -2.8495570292
H 5.0309235160 -0.0610971518 -1.1817053034
H 4.4440093220 1.0175554137 -2.4751963155
C -0.5419546873 3.1048506614 1.1367732773
C -1.9291423533 3.7628730536 0.9862112300
H -0.5814025206 2.3005217601 1.9001890185
H 0.2731338164 3.8022071383 1.4198465835
H -2.4674332769 3.9561317089 1.9311109067
H -2.4567945897 3.0756340162 0.3129153296
H -1.8377786638 4.7150112268 0.4227691803
C -1.0224671023 2.5591837935 -2.0294197181
C -2.4266959566 3.1678173581 -2.0631415308
H -1.0200008333 1.5775378568 -2.5530730430
H -0.3740410793 3.1787999024 -2.6870232614
H -2.3810915929 4.2708237997 -1.9661614108
H -3.1379475050 2.8153193883 -1.2816304565
H -2.8852741671 2.9510519367 -3.0483955149
51
step=8 E=-2803.647818398371 Eh
Co -0.0294514972 -0.0480060912 -0.1692740161
P 2.1652681047 0.0046088124 -0.2481983989
P -0.0566088950 2.1949093536 -0.4450247042
O -1.9244416294 0.0770308877 -0.0085200107
O 0.0443618597 -1.9389925818 -0.0266382823
C -2.7213623682 -0.9245532914 0.1550517550
C -2.3116417056 -2.2695193344 0.1746741357
C -0.9804770137 -2.7060214442 0.1344918713
C -4.1795351582 -0.5824642437 0.3285091517
C -0.6719043169 -4.1690653835 0.3109145769
H -3.0958855268 -3.0222162259 0.3793401741
H -4.6025533430 -1.0915659590 1.2145213317
H -4.3076997831 0.5093929806 0.4341397156
H -4.7574537382 -0.9298190431 -0.5533204251
H -1.2370795581 -4.7732004044 -0.4238145958
H 0.4097513254 -4.3512239025 0.1830253117
H -0.9827482634 -4.5088243392 1.3198942126
C 2.5809120263 1.7798041225 0.0804331249
C 1.6833070510 2.6709618693 -0.8397406063
H 3.6524683981 2.0580511127 0.0850897970
H 2.2422179209 1.9361361021 1.1328381067
H 2.1579492510 3.6691349547 -0.7494574742
H 1.8463136206 2.3549821614 -1.8944853317
C 2.9853338069 -1.0083189816 1.0724291504
C 4.4675204153 -1.3574839207 0.8720717842
H 2.8341668515 -0.4169250163 2.0021177001
H 2.3518421110 -1.9136572608 1.1642027539
H 4.9025706829 -1.7972777301 1.7897817005
H 5.0413092115 -0.4534402607 0.5994954452
H 4.6058834582 -2.0875780309 0.0512616756
C 2.9322645365 -0.5036989223 -1.8698869014
C 4.3717087162 -0.0477758251 -2.1177452320
H 2.8390689185 -1.6134863409 -1.8667432669
H 2.2561112739 -0.1631865782 -2.6805094033
H 4.8383498217 -0.6799114064 -2.8980908609
H 5.0007826479 -0.1043405904 -1.2118838600
H 4.3988552189 0.9981053525 -2.4811030691
C -0.5782300168 3.1166763931 1.1079505771
C -1.9677736176 3.7644559787 0.9445777921
H -0.6191949619 2.3240879260 1.8812588660
H 0.2224150606 3.8288280345 1.3947063055
H -2.4882196946 3.9407111502 1.9014617907
H -2.5205402502 3.0736359598 0.2901242782
H -1.8928058664 4.7239453907 0.3972854076
C -1.0258275926 2.6161564374 -2.0032960601
C -2.4360857980 3.2079188322 -2.0816484838
H -1.0265923964 1.6192841381 -2.4879153783
H -0.3557620544 3.2504653364 -2.6209999373
H -2.4078634550 4.3084395057 -1.9676980617
H -3.1602404029 2.8242016471 -1.3273983259
H -2.8607674648 2.9993492453 -3.0829792719
51
step=9 E=-2803.656768087347 Eh
Co -0.0340734239 -0.0602787708 -0.1770920003
P 2.1658910887 -0.0039677182 -0.2528090696
P -0.0548100170 2.1617512459 -0.5018755710
O -1.9257085712 0.0691442706 -0.0270347599
O 0.0467676344 -1.9441187872 0.0157771201
C -2.7193176423 -0.9341386266 0.1525100250
C -2.3161606238 -2.2798759649 0.2129780064
C -0.9804058965 -2.7112303241 0.1769197285
C -4.1786615611 -0.5890122683 0.3005679641
C -0.6701950973 -4.1738297319 0.3620822443
H -3.0732576624 -3.0537493009 0.3919581403
H -4.6145628442 -1.0794072674 1.1910414886
H -4.3090169671 0.5049145149 0.3840819346
H -4.7528000466 -0.9468442355 -0.5799435470
H -1.2327954581 -4.7928010839 -0.3636929139
H 0.4107742782 -4.3598271770 0.2324879639
H -0.9760618928 -4.5075334734 1.3745745667
C 2.5884881723 1.7765866220 0.0222665592
C 1.6955443362 2.6579315416 -0.8927057408
H 3.6670096409 2.0272257589 -0.0285707426
H 2.3033080256 1.9755744009 1.0827628363
H 2.0881041396 3.6893788454 -0.7732954718
H 1.8713613444 2.3772120114 -1.9555297374
C 2.9706735239 -0.9992913523 1.0867408884
C 4.4484650746 -1.3618869802 0.9182076151
H 2.7948207145 -0.4187330772 2.0186309589
H 2.3375756501 -1.9084969003 1.1634462558
H 4.8480936162 -1.8010580779 1.8524914227
H 5.0516866596 -0.4743503147 0.6596502953
H 4.5963093081 -2.1050780918 0.1117532525
C 2.9216231478 -0.4889910562 -1.8803484424
C 4.3550742374 0.0056395341 -2.1207816760
H 2.8512760427 -1.5982365203 -1.9130193236
H 2.2417236292 -0.1395829451 -2.6855041289
H 4.8242357655 -0.5853262541 -2.9316881878
H 4.9981102709 -0.0812745439 -1.2183790991
H 4.3760602221 1.0685380478 -2.4367619878
C -0.5534661377 3.0665245598 1.0593173958
C -1.9502560736 3.6977517239 0.9606429496
H -0.5578261307 2.2762554662 1.8367585837
H 0.2458935055 3.7899265677 1.3212656673
H -2.4032452168 3.8408569733 1.9579298720
H -2.5800723802 3.0167161356 0.3491136838
H -1.9117057690 4.6724631989 0.4399159714
C -1.0269277589 2.6326644349 -2.0375989329
C -2.4258454116 3.2678793394 -2.0679934627
H -1.0353195998 1.6625191760 -2.5738799361
H -0.3158701562 3.3000598972 -2.5684008340
H -2.3941394613 4.3556017665 -1.8682840247
H -3.1640036412 2.8336768447 -1.3629285132
H -2.8319314969 3.1427609221 -3.0915787540
51
step=10 E=-2803.651345590469 Eh
Co -0.0671375572 -0.0698345856 -0.2120015514
P 2.1664610261 0.0258639425 -0.2532576457
P -0.0302143797 2.0361476458 -0.6728662511
O -1.9534155648 0.0677699990 -0.1272357099
O 0.0033185294 -1.9275182070 0.1400074905
C -2.7524585528 -0.9285664096 0.0910111042
C -2.3829509066 -2.2743218773 0.2820736200
C -1.0326205627 -2.6942567969 0.2784591735
C -4.2154299526 -0.5692179581 0.1236580914
C -0.7240849224 -4.1565299747 0.4914941188
H -3.0454811290 -3.1196702633 0.4014741104
H -4.7177837675 -1.0047591253 1.0087784023
H -4.3486784699 0.5286154616 0.1382539468
H -4.7490455029 -0.9588625207 -0.7695181272
H -1.2778263756 -4.8081272508 -0.2156276144
H 0.3561588360 -4.3559502860 0.3695843811
H -1.0285980137 -4.4729727876 1.5106170452
C 2.6361499412 1.8028542411 -0.1160041575
C 1.7533353970 2.6172198893 -1.0186791125
H 3.7153556941 1.9739060811 -0.3268084516
H 2.5016995045 2.0998654360 0.9475287175
H 1.5805937182 3.7067717243 -0.8623378789
H 1.9950270851 2.4651406693 -2.0923275547
C 2.9677030676 -0.9172658290 1.1134400973
C 4.4422036511 -1.2999699360 1.0445738032
H 2.7239925991 -0.3656569963 2.0463329777
H 2.3435554370 -1.8400674667 1.1520927999
H 4.7363026076 -1.7236839801 2.0255028857
H 5.1429478405 -0.4646814783 0.8279481054
H 4.6228932850 -2.0883579818 0.2898788093
C 2.9307223368 -0.4657520278 -1.8660318280
C 4.3237691856 0.1308817017 -2.1370949528
H 2.9404905606 -1.5702444468 -1.9456799146
H 2.2260585481 -0.1304746681 -2.6591223949
H 4.7914525302 -0.3604578561 -3.0136085038
H 5.0120524909 -0.0008117263 -1.2706340298
H 4.2948591261 1.2189198012 -2.3602653244
C -0.4654588162 2.9180152952 0.8916824802
C -1.8548213294 3.5322203988 1.0976607019
H -0.3133962311 2.1446424432 1.6730651264
H 0.3170878957 3.6906010252 1.0439458299
H -1.9750685443 3.5916023244 2.1987220032
H -2.7942335739 2.9736908353 0.7683409661
H -1.9162723097 4.5446150643 0.6661340798
C -0.9772591626 2.6081846987 -2.1617394729
C -2.3387654457 3.2712747619 -1.9380043366
H -1.0160638998 1.6879496830 -2.7765336558
H -0.4114200413 3.3601869559 -2.7507350283
H -2.3252260509 4.3244344641 -1.6053119511
H -3.0375986277 2.7473322176 -1.2600585226
H -2.7804182627 3.2629207291 -2.9567865694
51
step=11 E=-2803.668557889134 Eh
Co -0.0470252996 -0.0564491354 -0.1932885822
P 2.1598865097 0.0273252488 -0.2337364917
P -0.0377461735 2.1114167303 -0.6072481154
O -1.9406454264 0.0693573497 -0.0934449725
O 0.0397634604 -1.9291908186 0.1039625172
C -2.7381930049 -0.9310731652 0.1038834231
C -2.3284456122 -2.2709576450 0.2425542243
C -0.9862969434 -2.7060814745 0.2420685103
C -4.2070489127 -0.5917451424 0.1685443925
C -0.6777697129 -4.1705033246 0.4395312220
H -3.0917980563 -3.0444751053 0.3829859635
H -4.6890476434 -1.0619328412 1.0481289978
H -4.3519381372 0.5032280532 0.2152879775
H -4.7367196126 -0.9724653071 -0.7302044174
H -1.2362004882 -4.8020528060 -0.2811392425
H 0.4037815471 -4.3616406982 0.3182222315
H -0.9868247926 -4.4968479990 1.4543301997
C 2.6396687423 1.8069777104 -0.0415848953
C 1.7373045321 2.6503221565 -0.9516840489
H 3.7218917287 1.9817950298 -0.2176795061
H 2.4762856120 2.0776896856 1.0255860049
H 1.8432299193 3.7439839689 -0.7919256312
H 1.9507181376 2.4534897622 -2.0240810040
C 2.9708855370 -0.9463466602 1.1084628057
C 4.4486767815 -1.3247664274 0.9888189090
H 2.7624433750 -0.3859462636 2.0452371435
H 2.3386955164 -1.8601110827 1.1644156356
H 4.7904994724 -1.7575059630 1.9499678175
H 5.1225629887 -0.4749413194 0.7516055822
H 4.6090956804 -2.0970834949 0.2108930135
C 2.9133529388 -0.4929667132 -1.8510675996
C 4.3207672026 0.0431651329 -2.1513792979
H 2.8816176415 -1.6021037010 -1.8765711141
H 2.2051471411 -0.1665885194 -2.6432293017
H 4.7725260972 -0.5025177322 -3.0036171507
H 5.0033974994 -0.0616488618 -1.2865529873
H 4.3056824092 1.1163550831 -2.4295875028
C -0.5008989375 3.0154601589 0.9707956466
C -1.9017162063 3.6275919816 1.0625470151
H -0.3932830576 2.2350201231 1.7524646828
H 0.2795217949 3.7784178022 1.1749073151
H -2.1912435695 3.7124391222 2.1288157446
H -2.6470004939 2.9804605738 0.5637881404
H -1.9579586538 4.6354360802 0.6116951668
C -1.0082042548 2.6410958105 -2.1079391597
C -2.4170352277 3.2476481847 -2.0302162302
H -1.0315000709 1.7045607432 -2.7017858954
H -0.3119235561 3.3538310046 -2.5983960866
H -2.3864493644 4.3068165565 -1.7136681439
H -3.1058249461 2.7119536788 -1.3543839798
H -2.8666988796 3.2293712699 -3.0445940896
51
step=12 E=-2803.670246412043 Eh
Co -0.0403619356 -0.0442372206 -0.1906039562
P 2.1608500801 0.0357188402 -0.2242401787
P -0.0286417181 2.1265411018 -0.5971976701
O -1.9368741130 0.0725465252 -0.0976008238
O 0.0482340132 -1.9192325377 0.1070776103
C -2.7325572815 -0.9307893394 0.0967896882
C -2.3212072463 -2.2702460272 0.2444529387
C -0.9763284797 -2.6985556377 0.2428779459
C -4.2040003681 -0.5967059905 0.1433172290
C -0.6637630949 -4.1632401976 0.4315316436
H -3.0917542726 -3.0390407710 0.3853710716
H -4.6951198801 -1.0704466873 1.0163074848
H -4.3527937588 0.4975846799 0.1884978228
H -4.7155896786 -0.9826717642 -0.7634563715
H -1.2278785798 -4.7874680792 -0.2907434706
H 0.4178943700 -4.3489706587 0.3039726639
H -0.9672892158 -4.4943382812 1.4465252220
C 2.6500262453 1.8205639864 -0.0291965881
C 1.7459078861 2.6613367575 -0.9372009918
H 3.7311288169 1.9878194399 -0.2157766285
H 2.4867090668 2.0849603136 1.0385715289
H 1.8809182830 3.7514028760 -0.7786439358
H 1.9541265009 2.4605304007 -2.0101028883
C 2.9638086970 -0.9419365695 1.1233635512
C 4.4393682294 -1.3282429631 0.9965633598
H 2.7646359968 -0.3720392943 2.0567532417
H 2.3289718261 -1.8522702547 1.1900611887
H 4.7918150286 -1.7609901181 1.9542005230
H 5.1056174755 -0.4772550526 0.7523502457
H 4.5923529757 -2.1006540567 0.2173543463
C 2.8900780388 -0.4948898391 -1.8487166358
C 4.2991150696 0.0288729844 -2.1614394519
H 2.8477275849 -1.6047142588 -1.8498051458
H 2.1725992352 -0.1765066972 -2.6354347103
H 4.7383266949 -0.5276102430 -3.0131848248
H 4.9884390032 -0.0772866869 -1.2984643173
H 4.2863307868 1.1000075739 -2.4472272685
C -0.4932469476 3.0335064441 0.9765827030
C -1.9033808244 3.6197304981 1.0750585606
H -0.3640618550 2.2648257315 1.7669112960
H 0.2847052452 3.8053666337 1.1585786028
H -2.1892733409 3.7355781735 2.1389753382
H -2.6420282310 2.9476940447 0.5960356590
H -1.9746828305 4.6126526324 0.5934825678
C -0.9886211139 2.6640552328 -2.1126053812
C -2.4139288335 3.2273821555 -2.0135400296
H -0.9908173992 1.7342723683 -2.7199681475
H -0.3552376485 3.3900917230 -2.6655407098
H -2.4262767187 4.2837168585 -1.6850609702
H -3.0730126592 2.6549127392 -1.3367066166
H -2.8682656659 3.1973273990 -3.0243405635
51
step=13 E=-2803.672291971268 Eh
Co -0.0368772583 -0.0160595110 -0.1903085831
P 2.1571521921 0.0654628686 -0.2066579211
P -0.0116043302 2.1495258133 -0.5877880853
O -1.9402698169 0.0846794939 -0.1214598828
O 0.0560334143 -1.8933964385 0.1220328680
C -2.7347941385 -0.9211312718 0.0697368624
C -2.3092632666 -2.2540748970 0.2375012198
C -0.9646528070 -2.6789499505 0.2473917189
C -4.2112035096 -0.6022540068 0.0812336151
C -0.6490609064 -4.1428294501 0.4348305384
H -3.1034781888 -3.0042043905 0.3818421923
H -4.7193945932 -1.0875361374 0.9384710643
H -4.3721254800 0.4899736535 0.1268675013
H -4.6868250474 -0.9945302939 -0.8420643627
H -1.2215258300 -4.7603595829 -0.2859676073
H 0.4326850350 -4.3234871643 0.3019740241
H -0.9469094252 -4.4727842858 1.4520436280
C 2.6823109652 1.8493879787 -0.0127761407
C 1.7659136811 2.6829952406 -0.9129302493
H 3.7587240245 1.9923889888 -0.2390262661
H 2.5397518396 2.1075905305 1.0576493529
H 1.8773764118 3.7745451275 -0.7472765199
H 1.9719091044 2.4932035525 -1.9880945799
C 2.9634936183 -0.9104181024 1.1434881599
C 4.4374280037 -1.3070704305 1.0109134512
H 2.7825737863 -0.3189298819 2.0674792494
H 2.3220029313 -1.8127153242 1.2338967820
H 4.8025202987 -1.7288343688 1.9691592148
H 5.1010971582 -0.4577973560 0.7470187055
H 4.5794192449 -2.0905101376 0.2406467701
C 2.8549739573 -0.5182480230 -1.8328292196
C 4.2552709926 -0.0189535363 -2.2044169264
H 2.8056686316 -1.6270830865 -1.7688219237
H 2.1129323728 -0.2328232294 -2.6082230751
H 4.6620712060 -0.6026078761 -3.0540588820
H 4.9675367310 -0.1134463833 -1.3616083904
H 4.2348652853 1.0435230709 -2.5188968315
C -0.4926282421 3.0552634254 0.9765711039
C -1.9349595646 3.5680090015 1.1109262464
H -0.2982672978 2.3118169174 1.7786094706
H 0.2585973943 3.8621518308 1.1188736415
H -2.1884087420 3.7229041574 2.1778528837
H -2.6818581382 2.8513375475 0.6784685544
H -2.0650862301 4.5356659717 0.5912565373
C -0.9435196294 2.7095414409 -2.1096066681
C -2.3858074702 3.1946367347 -1.9969574603
H -0.9064970234 1.8069362832 -2.7593570895
H -0.3119567929 3.4600312811 -2.6323845822
H -2.4763685901 4.2225059385 -1.5989118847
H -2.9825203437 2.5294090484 -1.3513548806
H -2.8271840227 3.1944277058 -3.0127753982
51
step=14 E=-2803.674124260856 Eh
Co -0.0375266192 0.0173003188 -0.1990781812
P 2.1537585215 0.0938153544 -0.1915960850
P 0.0132937099 2.1759237079 -0.5843561329
O -1.9456350475 0.1014324372 -0.1633127153
O 0.0571683060 -1.8606843715 0.1303397774
C -2.7358540127 -0.9075962963 0.0250709050
C -2.3026971892 -2.2345130470 0.2182492780
C -0.9580789745 -2.6534936588 0.2448682066
C -4.2152785310 -0.6022527753 -0.0020648026
C -0.6365527447 -4.1158486039 0.4388745333
H -3.0927814496 -2.9911391296 0.3500294668
H -4.7436413542 -1.1022131758 0.8339905636
H -4.3885438123 0.4876107437 0.0492136632
H -4.6557994098 -0.9911434485 -0.9440432785
H -1.2147637303 -4.7373112991 -0.2732266896
H 0.4448882792 -4.2926533882 0.2996732888
H -0.9248928579 -4.4391793884 1.4609462530
C 2.7186064915 1.8746334431 -0.0090963603
C 1.7920055871 2.7086789458 -0.8913785207
H 3.7868500918 1.9858383958 -0.2849370657
H 2.6086793129 2.1339182106 1.0635278414
H 1.8665758461 3.8032036273 -0.7191451628
H 1.9966717371 2.5321785341 -1.9687630069
C 2.9430650472 -0.8832881572 1.1662498735
C 4.4149740344 -1.2897907568 1.0362817691
H 2.7716111103 -0.2750924721 2.0812786397
H 2.2909197236 -1.7759713569 1.2685736687
H 4.7779130075 -1.7087705797 1.9962860069
H 5.0818500431 -0.4449335600 0.7713013336
H 4.5531027730 -2.0770701352 0.2685304956
C 2.8231899364 -0.5313392174 -1.8167374891
C 4.2153783592 -0.0472010091 -2.2332189514
H 2.7724307025 -1.6364605559 -1.7010228716
H 2.0613550432 -0.2751914564 -2.5821093363
H 4.5898537619 -0.6417588540 -3.0902081375
H 4.9528679905 -0.1437946616 -1.4142467292
H 4.1919104650 1.0127766876 -2.5551417682
C -0.4706641569 3.1029554946 0.9710348416
C -1.9248313753 3.5482447997 1.1600417379
H -0.1856804022 2.3971845290 1.7812083106
H 0.2256099549 3.9642567663 1.0662085516
H -2.1266823911 3.7499761339 2.2298371998
H -2.6564693139 2.7991223321 0.8011483732
H -2.1275252687 4.4851079958 0.6071252220
C -0.9043202028 2.7314207452 -2.1101115268
C -2.3823288656 3.0846750280 -1.9607317763
H -0.8112709879 1.8485200762 -2.7823668840
H -0.3302570400 3.5268922252 -2.6347665273
H -2.5342897598 4.0850737616 -1.5167432558
H -2.8883076115 2.3416689861 -1.3089196427
H -2.8671610431 3.0830546153 -2.9559357292
51
step=15 E=-2803.675893319548 Eh
Co -0.0410291121 0.0476706303 -0.2115204448
P 2.1518613923 0.1041712849 -0.1877151820
P 0.0246744826 2.2115748946 -0.5832044083
O -1.9515095445 0.1191504322 -0.2012081398
O 0.0585593633 -1.8294538530 0.1258728780
C -2.7366346919 -0.8930577871 -0.0125871524
C -2.3006932393 -2.2167162117 0.1937401673
C -0.9540486785 -2.6258385155 0.2366488452
C -4.2170787551 -0.5958633796 -0.0550863052
C -0.6243326486 -4.0835045309 0.4533452566
H -3.0779196583 -2.9860756853 0.3183207897
H -4.7550244458 -1.1156676844 0.7618746217
H -4.3993983587 0.4915438980 0.0149772956
H -4.6424415771 -0.9661202152 -1.0116754042
H -1.2049743312 -4.7231175899 -0.2402181449
H 0.4564959575 -4.2589009855 0.3075181531
H -0.9001941458 -4.3889063405 1.4843286024
C 2.7416559515 1.8780776149 -0.0213961065
C 1.8062302959 2.7312476728 -0.8862527523
H 3.8015269901 1.9653236341 -0.3342134739
H 2.6639913701 2.1419118624 1.0529921780
H 1.8879192946 3.8248365088 -0.7096038179
H 2.0035362212 2.5641376906 -1.9667694552
C 2.9224922710 -0.8722871884 1.1804585526
C 4.3935025145 -1.2839155569 1.0580562194
H 2.7526986601 -0.2527434974 2.0882127296
H 2.2616834495 -1.7580046452 1.2856099266
H 4.7473869782 -1.7064937625 2.0194792822
H 5.0622083883 -0.4384826057 0.8026716384
H 4.5352966435 -2.0675321524 0.2872608993
C 2.8115338917 -0.5548131976 -1.8049162339
C 4.1966455405 -0.0760209232 -2.2495006211
H 2.7659330580 -1.6566152183 -1.6596382109
H 2.0418985805 -0.3227267817 -2.5698053157
H 4.5466377324 -0.6716930096 -3.1162208061
H 4.9556269570 -0.1769291155 -1.4506660819
H 4.1730134720 0.9845448505 -2.5702384285
C -0.4619726865 3.1480884029 0.9641185401
C -1.9354615564 3.5004725613 1.2040911687
H -0.0968056900 2.4827554150 1.7770264627
H 0.1731183140 4.0589181733 1.0158412077
H -2.0975465427 3.7225798185 2.2767934395
H -2.6329265069 2.6951474986 0.8969393138
H -2.2262590653 4.4075573100 0.6405409664
C -0.8759337476 2.7821352323 -2.1044003755
C -2.3748032582 3.0114477662 -1.9430905176
H -0.7134214337 1.9349534219 -2.8085731647
H -0.3453468306 3.6390673276 -2.5752994546
H -2.5933771288 3.9746972097 -1.4485717603
H -2.7852851325 2.1972300928 -1.3140504133
H -2.8846020040 3.0141400565 -2.9256223960
51
step=16 E=-2803.678653442714 Eh
Co -0.0599728794 0.0956941597 -0.2366147791
P 2.1411034388 0.1118185588 -0.1895100313
P 0.0415235886 2.2823752809 -0.5706723905
O -1.9718949669 0.1385734738 -0.2685503110
O 0.0502216118 -1.7800567103 0.1011202669
C -2.7472293596 -0.8798098035 -0.0808436685
C -2.3078996599 -2.1993995425 0.1383641621
C -0.9560254549 -2.5849351500 0.2120503227
C -4.2282494534 -0.5941533538 -0.1372926516
C -0.6070651440 -4.0288083602 0.4834252192
H -3.0544651393 -2.9952503587 0.2587747701
H -4.7792890724 -1.1648543204 0.6343298895
H -4.4268668199 0.4856048107 -0.0094413704
H -4.6357975093 -0.9038446194 -1.1233877941
H -1.1944146286 -4.7135427600 -0.1594943815
H 0.4709705157 -4.2050314191 0.3169753634
H -0.8490124988 -4.2876513741 1.5356074823
C 2.7728606086 1.8624996965 -0.0572674829
C 1.8278077372 2.7605672582 -0.8737497744
H 3.8155691979 1.9204457843 -0.4279746598
H 2.7620172288 2.1359223162 1.0183605479
H 1.9779517584 3.8448002612 -0.6859097672
H 2.0028816050 2.6064273065 -1.9608422417
C 2.8805085117 -0.8525024938 1.2031770396
C 4.3527528134 -1.2592873225 1.0947620710
H 2.7046490127 -0.2197272134 2.1005280159
H 2.2120820189 -1.7326417712 1.3058616654
H 4.6893797503 -1.6974900812 2.0548096014
H 5.0170391998 -0.4020758572 0.8682832974
H 4.5113226690 -2.0245033444 0.3095727317
C 2.8009876999 -0.6062597385 -1.7826443343
C 4.1699241510 -0.1255356952 -2.2709770119
H 2.7784763875 -1.7027932892 -1.6025445486
H 2.0256562624 -0.4198649758 -2.5546111392
H 4.4773313584 -0.7119108570 -3.1603335978
H 4.9684942731 -0.2362415104 -1.5117835512
H 4.1443113536 0.9389821058 -2.5805338557
C -0.4392668445 3.2481043849 0.9532355039
C -1.9306854962 3.4006577380 1.2768183126
H 0.0749264376 2.6867600160 1.7646862616
H 0.0544695501 4.2431412013 0.9145286863
H -2.0453620206 3.6560587059 2.3485691457
H -2.5124495755 2.4891736285 1.0573625872
H -2.3880788372 4.2311934016 0.7064834908
C -0.8347475760 2.8934936057 -2.0825770388
C -2.3608841793 2.8785695643 -1.9244719945
H -0.5216208076 2.1613829201 -2.8600473973
H -0.4054763159 3.8740321114 -2.3831501204
H -2.6881029487 3.7610199161 -1.3467008399
H -2.6203983289 1.9632461859 -1.3542400847
H -2.9052778509 2.8841747152 -2.8880312406
51
step=17 E=-2803.680450137549 Eh
Co -0.0702167458 0.0921866098 -0.2368414341
P 2.1373861069 0.0925246935 -0.1976951856
P 0.0350905847 2.2927961265 -0.5687555959
O -1.9790565020 0.1203256546 -0.2638150634
O 0.0489549188 -1.7818143100 0.0956144847
C -2.7500866553 -0.9007638710 -0.0744596133
C -2.3050631893 -2.2189799427 0.1390270764
C -0.9502754159 -2.5945232583 0.2166709904
C -4.2308279463 -0.6174073380 -0.1224902116
C -0.5885547689 -4.0314266367 0.5034964492
H -3.0441362225 -3.0193423911 0.2680323420
H -4.7815239277 -1.2100102698 0.6323010951
H -4.4317658892 0.4582940187 0.0351576794
H -4.6408570371 -0.8957502315 -1.1171053413
H -1.1813017582 -4.7334045873 -0.1155567715
H 0.4871985040 -4.2065866321 0.3205853563
H -0.8089063280 -4.2736515071 1.5644933547
C 2.7652405020 1.8368489852 -0.0840474578
C 1.8210401955 2.7506957871 -0.8840744393
H 3.8069724942 1.9033330124 -0.4571802377
H 2.7729863456 2.1142633606 0.9914612712
H 2.0046418621 3.8289526785 -0.6924356593
H 1.9832933476 2.6000901732 -1.9739466336
C 2.8742370810 -0.8589130744 1.2059998965
C 4.3496314746 -1.2555004578 1.1027516450
H 2.6870111743 -0.2310444641 2.1041402292
H 2.2135440911 -1.7461436630 1.3025295899
H 4.6814952276 -1.7038894702 2.0597181433
H 5.0088817038 -0.3910585220 0.8920770011
H 4.5194432348 -2.0092432417 0.3090793413
C 2.8045054269 -0.6311034465 -1.7817948830
C 4.1693665160 -0.1361762056 -2.2688862332
H 2.7960039127 -1.7290654637 -1.6138697486
H 2.0329431759 -0.4516989023 -2.5600431045
H 4.4723962630 -0.7097482647 -3.1680315548
H 4.9735928437 -0.2529253009 -1.5151261484
H 4.1433439010 0.9322887139 -2.5653801597
C -0.4421440121 3.2600652623 0.9462674540
C -1.9395304794 3.3479218028 1.2813662448
H 0.0979445826 2.7271269425 1.7596354693
H 0.0151051315 4.2709433887 0.8850062781
H -2.0528432055 3.5789594892 2.3591223638
H -2.4857982400 2.4065676125 1.0587351770
H -2.4391802975 4.1655025334 0.7289192470
C -0.8270557648 2.9548416022 -2.0698807659
C -2.3589307532 2.9517996346 -1.9598607049
H -0.4808259904 2.2734134360 -2.8766480323
H -0.3930946630 3.9602307007 -2.2589955777
H -2.6964758433 3.8210987550 -1.3676183786
H -2.6682953495 2.0277820581 -1.4385852361
H -2.8598467083 3.0033561445 -2.9458896267
51
step=18 E=-2803.682259105081 Eh
Co -0.0794799633 0.1046263446 -0.2347501115
P 2.1314814123 0.0894796906 -0.2001429012
P 0.0434915807 2.3093101926 -0.5527393138
O -1.9840167529 0.1204141388 -0.2671217456
O 0.0425473001 -1.7685886274 0.0892006547
C -2.7574701105 -0.9011143078 -0.0843736148
C -2.3099384925 -2.2193462602 0.1314658546
C -0.9523178589 -2.5875502894 0.2179741052
C -4.2372602201 -0.6170347499 -0.1511261008
C -0.5820510762 -4.0197750549 0.5138276429
H -3.0568068284 -3.0107580674 0.2718832915
H -4.8073899497 -1.2497067544 0.5557927253
H -4.4412241286 0.4496199812 0.0579876317
H -4.6204023721 -0.8380211686 -1.1707332642
H -1.2001345986 -4.7310658213 -0.0690032019
H 0.4862135603 -4.2004687398 0.2945288798
H -0.7611999397 -4.2412703305 1.5874866817
C 2.7725447875 1.8234757654 -0.1071053417
C 1.8267111792 2.7524435994 -0.8801217899
H 3.8097661798 1.8978507907 -0.4926804372
H 2.8114427956 2.0958409045 0.9692664545
H 2.0350885668 3.8229756774 -0.6710707915
H 1.9706839365 2.6185292941 -1.9750822430
C 2.8672432104 -0.8413152957 1.2181864991
C 4.3470918614 -1.2176394408 1.1172036185
H 2.6662648174 -0.2188749871 2.1166363972
H 2.2222199168 -1.7405772080 1.3122785757
H 4.6807179150 -1.6823617366 2.0662578409
H 4.9978025906 -0.3404010847 0.9267216473
H 4.5296088157 -1.9539884114 0.3103093165
C 2.7944190848 -0.6646589631 -1.7701525270
C 4.1509754573 -0.1696853868 -2.2829479397
H 2.8004266332 -1.7600375615 -1.5882252792
H 2.0154995569 -0.5062798649 -2.5465504688
H 4.4337273926 -0.7394929136 -3.1911286897
H 4.9695425061 -0.2928939548 -1.5447040635
H 4.1232457026 0.8998437943 -2.5754575731
C -0.4233136026 3.2918328845 0.9461458519
C -1.9125724940 3.2320606584 1.3179267634
H 0.1908375758 2.8448778389 1.7586530524
H -0.0593601850 4.3344075495 0.8210412012
H -2.0401028315 3.4450589646 2.3981030504
H -2.3449648988 2.2307473561 1.1033731395
H -2.5044896956 3.9887258810 0.7711232841
C -0.8144567765 3.0397109650 -2.0317000457
C -2.3492083325 2.9441318242 -1.9796554051
H -0.3982377725 2.4606591913 -2.8830931690
H -0.4594129270 4.0893564239 -2.1173679475
H -2.7689091787 3.7659478090 -1.3711024412
H -2.6547090930 1.9843354018 -1.5251602650
H -2.7917652064 3.0220756885 -2.9916652182
51
step=19 E=-2803.683200572797 Eh
Co -0.0735340743 0.1006736346 -0.2296624965
P 2.1348811501 0.0888043305 -0.2039999580
P 0.0486074420 2.2967373225 -0.5555603755
O -1.9757068257 0.1223549999 -0.2578559316
O 0.0441011180 -1.7723624678 0.0917448656
C -2.7548229372 -0.8970926909 -0.0813686712
C -2.3077207882 -2.2149032671 0.1395024149
C -0.9519391596 -2.5897578540 0.2235520192
C -4.2331628602 -0.6084183450 -0.1645214978
C -0.5858578974 -4.0243811193 0.5106584320
H -3.0695800557 -2.9934594655 0.2825470428
H -4.8177759166 -1.2606509156 0.5123603377
H -4.4360275104 0.4527087408 0.0716815219
H -4.5923266643 -0.7993010818 -1.1987236397
H -1.2284762639 -4.7264909895 -0.0558562718
H 0.4752326961 -4.2114618631 0.2640560789
H -0.7377976393 -4.2426819022 1.5893693753
C 2.7779757220 1.8264592927 -0.1188788066
C 1.8291634796 2.7468877910 -0.8914311823
H 3.8178147891 1.9071857251 -0.4969808145
H 2.8173074359 2.0963008927 0.9580262421
H 2.0173803478 3.8183375572 -0.6704737244
H 1.9719175394 2.6224854395 -1.9870232485
C 2.8748788112 -0.8344387993 1.2172117226
C 4.3608536826 -1.1961072676 1.1278948779
H 2.6583593220 -0.2199452525 2.1173918900
H 2.2431312825 -1.7437522635 1.3044054297
H 4.6928575958 -1.6678470539 2.0744860590
H 5.0075130260 -0.3130052434 0.9524473481
H 4.5577480537 -1.9243475873 0.3164692221
C 2.7919118372 -0.6744700668 -1.7700407401
C 4.1490362510 -0.1857655084 -2.2827996020
H 2.7952939614 -1.7689591409 -1.5799595336
H 2.0098285629 -0.5174037511 -2.5434088741
H 4.4332159239 -0.7594665474 -3.1878039220
H 4.9605708029 -0.3105381554 -1.5392597351
H 4.1217815679 0.8826292555 -2.5777379940
C -0.4082797566 3.2799971459 0.9456855482
C -1.8915082663 3.1848705700 1.3411503157
H 0.2338969660 2.8695956373 1.7555331811
H -0.0761552313 4.3283480090 0.7847550853
H -2.0194098857 3.3882052330 2.4226319744
H -2.3067522761 2.1765051844 1.1288658217
H -2.5063868970 3.9222207207 0.7928112745
C -0.8328412930 3.0424898289 -2.0136445711
C -2.3660967473 2.9565047479 -1.9813868333
H -0.4180427913 2.4931007242 -2.8852619520
H -0.4910838251 4.0970179201 -2.0919112741
H -2.8107151511 3.7776520961 -1.3883487253
H -2.7174006961 2.0026344831 -1.5450054238
H -2.7623886143 3.0466111988 -3.0116643065
51
step=20 E=-2803.683755841351 Eh
Co -0.0732243374 0.1072465360 -0.2285727876
P 2.1318432578 0.0961226323 -0.2057455709
P 0.0519635983 2.2970375341 -0.5611708056
O -1.9759954936 0.1259485717 -0.2619217835
O 0.0429555236 -1.7667069609 0.0956913027
C -2.7546842205 -0.8951633765 -0.0896881358
C -2.3061699025 -2.2100455069 0.1415793565
C -0.9515000891 -2.5857598612 0.2259512546
C -4.2327146939 -0.6097103999 -0.1921904809
C -0.5845316726 -4.0207758273 0.5114192242
H -3.0701712521 -2.9883813210 0.2770118150
H -4.8285450585 -1.2877877795 0.4479119234
H -4.4448196958 0.4418050188 0.0763908401
H -4.5654094242 -0.7654299555 -1.2410641565
H -1.2480540811 -4.7215624982 -0.0311868191
H 0.4685485450 -4.2124581551 0.2361010716
H -0.7044520222 -4.2303657575 1.5959509798
C 2.7835398721 1.8359147521 -0.1315038729
C 1.8317799393 2.7533631614 -0.9031560908
H 3.8221754843 1.9086606011 -0.5139614178
H 2.8264069762 2.1069428657 0.9447515323
H 1.9982009353 3.8263411949 -0.6725930649
H 1.9753436687 2.6383564886 -1.9992082762
C 2.8695069892 -0.8210231710 1.2178660014
C 4.3600016610 -1.1649172196 1.1420828174
H 2.6380333748 -0.2095973772 2.1165558187
H 2.2469362880 -1.7369595383 1.2993579106
H 4.6864065098 -1.6408391497 2.0885543308
H 5.0010738438 -0.2744853719 0.9830717689
H 4.5739535727 -1.8851880491 0.3275415729
C 2.7808599341 -0.6869824848 -1.7672383465
C 4.1396654379 -0.2129376858 -2.2887830354
H 2.7781770453 -1.7779853741 -1.5557897608
H 1.9945283827 -0.5370526558 -2.5371997097
H 4.4199790300 -0.7954837821 -3.1892240140
H 4.9503239274 -0.3371376695 -1.5455360455
H 4.1149941272 0.8531451556 -2.5913511997
C -0.3902042400 3.2837725597 0.9455443360
C -1.8570670347 3.1386678856 1.3833247588
H 0.2937051362 2.9201804202 1.7431726798
H -0.1077783317 4.3407678356 0.7489129906
H -1.9709710757 3.3420491105 2.4657999473
H -2.2307306593 2.1138634619 1.1779234204
H -2.5132003689 3.8449056004 0.8410343204
C -0.8416976818 3.0527840850 -2.0009452405
C -2.3710680773 2.9444140704 -1.9827235831
H -0.4177808820 2.5417421618 -2.8919742621
H -0.5171115624 4.1143473709 -2.0628520013
H -2.8360258097 3.7504132814 -1.3836495855
H -2.7101013010 1.9781368368 -1.5661883384
H -2.7613426728 3.0426379007 -3.0147350984
51
step=21 E=-2803.684266507914 Eh
Co -0.0690754048 0.1082633359 -0.2299436877
P 2.1314325288 0.1020266062 -0.2093863584
P 0.0553853270 2.2915567871 -0.5758314633
O -1.9745605490 0.1271352734 -0.2718706294
O 0.0449008239 -1.7671106078 0.0991815373
C -2.7529700066 -0.8954391163 -0.1047061456
C -2.3052942165 -2.2080219956 0.1373870876
C -0.9511169874 -2.5841202104 0.2229778612
C -4.2299074053 -0.6115764839 -0.2258102467
C -0.5850310532 -4.0198131042 0.5079225770
H -3.0683922260 -2.9895051136 0.2599776215
H -4.8370706422 -1.3215914126 0.3662527591
H -4.4529434586 0.4252119915 0.0877678588
H -4.5356270585 -0.7161914221 -1.2892187227
H -1.2726467591 -4.7208299394 -0.0023880927
H 0.4565860078 -4.2202261275 0.1972338623
H -0.6642668219 -4.2170076691 1.5985139386
C 2.7883961183 1.8460878538 -0.1460510609
C 1.8344096959 2.7566430668 -0.9258589411
H 3.8267629873 1.9041727537 -0.5303986370
H 2.8270768698 2.1233999770 0.9285892604
H 1.9810424673 3.8316800183 -0.6908799695
H 1.9820425868 2.6454474811 -2.0212288026
C 2.8692130607 -0.8076160746 1.2180345613
C 4.3666225397 -1.1251065711 1.1661530252
H 2.6150668211 -0.1997077382 2.1133727922
H 2.2588957512 -1.7323283634 1.2908373924
H 4.6830405596 -1.6018032823 2.1155887664
H 4.9957754715 -0.2226165103 1.0269989817
H 4.6083087632 -1.8363774191 0.3515591905
C 2.7718202263 -0.7012816287 -1.7664761044
C 4.1352963141 -0.2451454352 -2.2899531671
H 2.7572026173 -1.7878665918 -1.5323785773
H 1.9850392802 -0.5549945982 -2.5359394849
H 4.4171390137 -0.8416527850 -3.1806778448
H 4.9398951179 -0.3658858281 -1.5402275887
H 4.1177701976 0.8171558997 -2.6059212357
C -0.3698080781 3.2848777838 0.9353906488
C -1.8160018652 3.1181730153 1.4325551984
H 0.3589700572 2.9670091121 1.7117800320
H -0.1359007388 4.3459279803 0.6988767267
H -1.8896938668 3.3516987597 2.5118054598
H -2.1890714950 2.0858513759 1.2706872767
H -2.5056901673 3.7948055092 0.8932789685
C -0.8617273300 3.0416464555 -1.9950443989
C -2.3896046401 2.9295400015 -1.9673923952
H -0.4467586370 2.5449204189 -2.8991703435
H -0.5348986705 4.1033108369 -2.0641486422
H -2.8542935691 3.7305429848 -1.3609307453
H -2.7235667783 1.9576740454 -1.5547813768
H -2.7895397356 3.0314919153 -2.9954153519
51
step=22 E=-2803.684708928829 Eh
Co -0.0699495998 0.1070694462 -0.2297020604
P 2.1282719239 0.1036830833 -0.2138720864
P 0.0536728806 2.2892453119 -0.5883787296
O -1.9770733448 0.1257146433 -0.2793792032
O 0.0443133136 -1.7692033054 0.1022285863
C -2.7532678535 -0.8989806336 -0.1168298516
C -2.3063481530 -2.2109180119 0.1296430310
C -0.9520618409 -2.5858631785 0.2194767935
C -4.2290819254 -0.6156552790 -0.2473599200
C -0.5851894030 -4.0208632656 0.5078294223
H -3.0635311245 -2.9990307416 0.2407629547
H -4.8445471829 -1.3639676192 0.2850160996
H -4.4634934723 0.3982842655 0.1278143559
H -4.5135878163 -0.6480941330 -1.3213724060
H -1.2981515523 -4.7264157128 0.0411370128
H 0.4406948625 -4.2337400366 0.1550387943
H -0.6137599000 -4.1994274541 1.6042219972
C 2.7855654803 1.8498849809 -0.1653938238
C 1.8314341225 2.7566493719 -0.9512043405
H 3.8233997338 1.8965142152 -0.5519294691
H 2.8215285498 2.1364549001 0.9068056072
H 1.9792576782 3.8315192807 -0.7156144306
H 1.9798285432 2.6434021224 -2.0460391773
C 2.8654089998 -0.7960393748 1.2201346703
C 4.3702882509 -1.0786400579 1.1930952457
H 2.5836325278 -0.1949524576 2.1120502252
H 2.2718642617 -1.7324591847 1.2816909153
H 4.6779693263 -1.5579964076 2.1439679543
H 4.9791859052 -0.1592619097 1.0780269438
H 4.6451802649 -1.7748871362 0.3762850781
C 2.7628386613 -0.7143126545 -1.7660132202
C 4.1316839673 -0.2720453304 -2.2870470991
H 2.7375208723 -1.7978415355 -1.5191125089
H 1.9788433686 -0.5682894838 -2.5380306987
H 4.4149395504 -0.8789187453 -3.1703380005
H 4.9309019766 -0.3915964941 -1.5310564709
H 4.1243525221 0.7875565005 -2.6127073607
C -0.3500125948 3.2906078658 0.9260912931
C -1.7672380564 3.0852095756 1.4786789763
H 0.4201576273 3.0173374951 1.6785286648
H -0.1683415353 4.3551376671 0.6604405516
H -1.8093255049 3.3391520467 2.5549555925
H -2.1047657584 2.0389193290 1.3464226496
H -2.5006714121 3.7260278576 0.9531746166
C -0.8788061425 3.0425813896 -1.9938142055
C -2.4078024667 2.9296663265 -1.9632479781
H -0.4683337809 2.5583811559 -2.9070986861
H -0.5468235644 4.1039172418 -2.0543407547
H -2.8657842890 3.7193473475 -1.3368959778
H -2.7301878775 1.9474529997 -1.5683405566
H -2.8198646099 3.0477874142 -2.9847066999
51
step=23 E=-2803.685350553562 Eh
Co -0.0707762747 0.1000392281 -0.2294098268
P 2.1253070277 0.1034618028 -0.2187191937
P 0.0461174153 2.2819381092 -0.6139755120
O -1.9792328657 0.1215151224 -0.2953662958
O 0.0445474475 -1.7757732647 0.1103509267
C -2.7528656610 -0.9055960993 -0.1407859746
C -2.3076245784 -2.2179246342 0.1085613727
C -0.9535260001 -2.5915141844 0.2129730206
C -4.2266071216 -0.6205384029 -0.2799190333
C -0.5874148961 -4.0247162792 0.5094234918
H -3.0590394502 -3.0125993065 0.2041892696
H -4.8522558342 -1.4281578666 0.1407621233
H -4.4799296723 0.3410913354 0.2066057993
H -4.4805095892 -0.5166207341 -1.3571250476
H -1.3411605670 -4.7355643243 0.1228363600
H 0.4057147205 -4.2635979254 0.0850567473
H -0.5260985480 -4.1696271627 1.6096545551
C 2.7762609281 1.8527094811 -0.1957959354
C 1.8223130505 2.7487734405 -0.9987976096
H 3.8141234540 1.8851117980 -0.5827395033
H 2.8053023819 2.1588376887 0.8710371075
H 1.9807622018 3.8237079570 -0.7701020235
H 1.9718434807 2.6220459702 -2.0918616974
C 2.8633538824 -0.7752775511 1.2271734106
C 4.3778214157 -0.9923295591 1.2394524388
H 2.5334522664 -0.1891900577 2.1128370517
H 2.3036812854 -1.7334665674 1.2715365788
H 4.6756691557 -1.4723709934 2.1930081915
H 4.9464897894 -0.0439259135 1.1588794537
H 4.7077030161 -1.6630569305 0.4222454904
C 2.7531601582 -0.7341314467 -1.7640555194
C 4.1337219962 -0.3189457612 -2.2797956310
H 2.7074554045 -1.8142950131 -1.5064459024
H 1.9762805593 -0.5809253264 -2.5418615608
H 4.4188482435 -0.9444040235 -3.1495458340
H 4.9240946318 -0.4365929114 -1.5128884084
H 4.1472280287 0.7351318337 -2.6231277592
C -0.3318077246 3.2946004444 0.9023382587
C -1.6988182123 3.0425891956 1.5540969251
H 0.4951383640 3.0836287603 1.6130844546
H -0.2219024707 4.3589560245 0.5986232994
H -1.6815391901 3.3526221985 2.6166365714
H -1.9994694282 1.9742202487 1.5033060042
H -2.4973756894 3.6219317326 1.0525221810
C -0.9016600728 3.0379804629 -2.0048917393
C -2.4289199819 2.9404577944 -1.9430045156
H -0.5108365643 2.5468416666 -2.9234557325
H -0.5523717686 4.0938326151 -2.0734564425
H -2.8617282969 3.7128931786 -1.2786018996
H -2.7372935436 1.9475412167 -1.5709047463
H -2.8656108526 3.0916637564 -2.9494912240
51
step=24 E=-2803.686011356097 Eh
Co -0.0701136356 0.0862996182 -0.2222731354
P 2.1267121498 0.0982721237 -0.2216532436
P 0.0364034674 2.2679629790 -0.6305218277
O -1.9775098029 0.1161330570 -0.3000655314
O 0.0435301410 -1.7871758500 0.1193589616
C -2.7533114045 -0.9103454475 -0.1568509268
C -2.3122014272 -2.2261973731 0.0849235799
C -0.9585759350 -2.6001236423 0.2057858649
C -4.2249766119 -0.6160038288 -0.2903919509
C -0.5948099267 -4.0326846119 0.5037201847
H -3.0622175435 -3.0222137878 0.1698656145
H -4.8577030472 -1.4730874461 0.0005628793
H -4.4925746957 0.2683577743 0.3214857121
H -4.4566178070 -0.3523976200 -1.3448521190
H -1.3902092910 -4.7414732310 0.2088425245
H 0.3518343393 -4.3026721579 -0.0023445290
H -0.4278799268 -4.1478971397 1.5966595496
C 2.7608822276 1.8501626342 -0.2200876395
C 1.8077261806 2.7313594406 -1.0425416080
H 3.8028279602 1.8853134823 -0.5961969412
H 2.7768616232 2.1745497636 0.8417914242
H 1.9827490854 3.8066024408 -0.8270477876
H 1.9554483224 2.5808173755 -2.1327539563
C 2.8721236973 -0.7623176771 1.2332140788
C 4.3947473612 -0.9068737423 1.2859456653
H 2.4905130982 -0.2026248812 2.1152388907
H 2.3555445947 -1.7455004500 1.2548666579
H 4.6881991982 -1.3904748563 2.2391692793
H 4.9148631763 0.0711927147 1.2408991794
H 4.7813452281 -1.5439918042 0.4673640234
C 2.7528542855 -0.7420895508 -1.7628955124
C 4.1473375832 -0.3520105131 -2.2612514769
H 2.6815193983 -1.8236633794 -1.5186002576
H 1.9892134414 -0.5653346989 -2.5492461298
H 4.4363336968 -0.9917949749 -3.1192787746
H 4.9232358334 -0.4732851269 -1.4793735904
H 4.1867067207 0.6977517207 -2.6160761591
C -0.3081282923 3.2960344398 0.8859660613
C -1.6263309189 3.0112734874 1.6065389625
H 0.5583483826 3.1225824709 1.5590258970
H -0.2453974372 4.3591051869 0.5651896561
H -1.5752727395 3.3667366481 2.6543185011
H -1.8656560210 1.9324083437 1.6137315159
H -2.4773248551 3.5316796028 1.1267325018
C -0.9352121276 3.0114417804 -2.0236875055
C -2.4684894551 2.9635025333 -1.9290386204
H -0.5812897562 2.4778904488 -2.9333216151
H -0.5508006627 4.0524309840 -2.1185263416
H -2.8524117490 3.7300278713 -1.2285089178
H -2.8017466608 1.9686730957 -1.5801918236
H -2.9235302888 3.1586044578 -2.9195246802
51
step=25 E=-2803.686638589323 Eh
Co -0.0727621997 0.0827665599 -0.2186339140
P 2.1255933883 0.0981294483 -0.2197296197
P 0.0286527342 2.2645307219 -0.6421079876
O -1.9774021344 0.1103725317 -0.3105792972
O 0.0429851776 -1.7867277788 0.1293870815
C -2.7524960319 -0.9175660399 -0.1758981411
C -2.3094093756 -2.2342582865 0.0604701474
C -0.9569728139 -2.6048585031 0.2024546014
C -4.2243346470 -0.6218985335 -0.3004100597
C -0.5889063880 -4.0353228116 0.5006111584
H -3.0629348013 -3.0277436587 0.1426004111
H -4.8545192832 -1.5107174682 -0.1212438256
H -4.5081069963 0.1796524295 0.4118646154
H -4.4427573050 -0.2284709813 -1.3157744850
H -1.4129401839 -4.7400271247 0.2873450832
H 0.3102152399 -4.3286150758 -0.0757618871
H -0.3276285989 -4.1281397321 1.5770117713
C 2.7514276394 1.8493459703 -0.2370341996
C 1.7969829833 2.7170668428 -1.0719784928
H 3.7949493876 1.8922002350 -0.6092171892
H 2.7654761197 2.1887639514 0.8202747986
H 1.9852978226 3.7933741244 -0.8745805241
H 1.9392211664 2.5419483467 -2.1591035495
C 2.8737289388 -0.7472282790 1.2440567076
C 4.3993873892 -0.8409845144 1.3263062579
H 2.4563902120 -0.2067296251 2.1217655824
H 2.3906368932 -1.7475638013 1.2524687324
H 4.6928751832 -1.3220204982 2.2809614122
H 4.8822301110 0.1559417024 1.2987757327
H 4.8244138551 -1.4566735687 0.5107672130
C 2.7448562140 -0.7434442066 -1.7592333709
C 4.1494278157 -0.3808410927 -2.2511187904
H 2.6488820292 -1.8268763430 -1.5326296726
H 1.9901965795 -0.5407284744 -2.5486981511
H 4.4281189780 -1.0293269089 -3.1059503588
H 4.9211028512 -0.5146482335 -1.4664896984
H 4.2114497083 0.6667462721 -2.6090659653
C -0.3057650379 3.3075946068 0.8643430303
C -1.5828834621 2.9883939650 1.6472704266
H 0.5879471259 3.1681259721 1.5101783890
H -0.2812759516 4.3681854592 0.5305000994
H -1.5144911592 3.4059152616 2.6715603743
H -1.7643676970 1.8970793122 1.7353576158
H -2.4786334177 3.4355268716 1.1754021760
C -0.9402630633 2.9997350836 -2.0454179181
C -2.4675062997 2.9837245826 -1.9068126217
H -0.6157036014 2.4269729243 -2.9415438418
H -0.5411158916 4.0307800272 -2.1717006661
H -2.8149452550 3.7309831712 -1.1674878180
H -2.8086682957 1.9841794255 -1.5835373759
H -2.9418417346 3.2265182650 -2.8774746103
51
step=26 E=-2803.687167956211 Eh
Co -0.0716890898 0.0863453741 -0.2115043633
P 2.1283601329 0.0999927370 -0.2125020754
P 0.0276847157 2.2664961986 -0.6346372936
O -1.9728155492 0.1085844952 -0.3101485348
O 0.0449945534 -1.7797350548 0.1364849388
C -2.7494071764 -0.9195770570 -0.1823041924
C -2.3042688942 -2.2373900405 0.0475291381
C -0.9522744442 -2.6038757993 0.2018213911
C -4.2224914916 -0.6230581063 -0.2958259748
C -0.5774862198 -4.0344178551 0.4892009216
H -3.0618436767 -3.0271623490 0.1318229440
H -4.8468356779 -1.5284250738 -0.1937701331
H -4.5160948800 0.1090411794 0.4849871689
H -4.4369877662 -0.1436395324 -1.2732695033
H -1.4212326675 -4.7312575756 0.3369696354
H 0.2764046959 -4.3401573654 -0.1473780467
H -0.2386991043 -4.1210790566 1.5438670033
C 2.7496405714 1.8498844262 -0.2346532306
C 1.7921622158 2.7085962062 -1.0743541236
H 3.7957602077 1.9107248291 -0.5986004321
H 2.7623636877 2.1923823161 0.8221041534
H 1.9848892756 3.7873301759 -0.8959178359
H 1.9261060301 2.5137529549 -2.1592116513
C 2.8793068129 -0.7409341588 1.2519066660
C 4.4052681277 -0.8091725267 1.3501059995
H 2.4446589042 -0.2139518544 2.1291906016
H 2.4156250629 -1.7503724803 1.2513787282
H 4.6983973080 -1.2852770558 2.3073720348
H 4.8705913674 0.1962722455 1.3257583976
H 4.8491500116 -1.4170443509 0.5386607842
C 2.7412639609 -0.7354433829 -1.7556679549
C 4.1535747111 -0.3998307559 -2.2475820707
H 2.6196475444 -1.8208560126 -1.5516533987
H 1.9932316036 -0.5020689802 -2.5437571116
H 4.4158915836 -1.0513255843 -3.1052122015
H 4.9250061324 -0.5513632528 -1.4671567173
H 4.2342891677 0.6475326690 -2.6018387571
C -0.3087115349 3.3250866553 0.8579577888
C -1.5722312403 2.9846024965 1.6527619601
H 0.5910280460 3.1972815426 1.4988434765
H -0.2974739491 4.3852183481 0.5225591875
H -1.5275261669 3.4463876928 2.6594382725
H -1.6941954015 1.8915828476 1.7877638034
H -2.4878672024 3.3636871147 1.1602718631
C -0.9397385327 2.9783515388 -2.0569267576
C -2.4642721808 3.0025210608 -1.8926163533
H -0.6445127839 2.3622283716 -2.9335562034
H -0.5286275236 3.9979168518 -2.2231929774
H -2.7810345476 3.7405147824 -1.1301399734
H -2.8438067799 2.0076649070 -1.5906788253
H -2.9397071728 3.2893310185 -2.8510137147
51
step=27 E=-2803.687476980129 Eh
Co -0.0687984941 0.0934392296 -0.2084914731
P 2.1314958509 0.1054126527 -0.2067515175
P 0.0307266290 2.2695773271 -0.6265129909
O -1.9684181502 0.1090785611 -0.3104564647
O 0.0505120568 -1.7717128754 0.1406993723
C -2.7441502760 -0.9200860842 -0.1840366695
C -2.2962106218 -2.2370349050 0.0475236763
C -0.9441115583 -2.6002273952 0.2040038540
C -4.2183202300 -0.6262646392 -0.2972998624
C -0.5637753291 -4.0308466201 0.4843274640
H -3.0557593354 -3.0253647835 0.1324873328
H -4.8368748486 -1.5394501050 -0.2351480045
H -4.5213972295 0.0679519336 0.5140911103
H -4.4284246208 -0.1086519369 -1.2554225814
H -1.4185013548 -4.7220387915 0.3745806766
H 0.2555073942 -4.3437771130 -0.1934086019
H -0.1723870450 -4.1144757335 1.5204190292
C 2.7544425994 1.8555189782 -0.2289093046
C 1.7933658310 2.7085180530 -1.0670453874
H 3.8010203558 1.9250544404 -0.5905297047
H 2.7678826929 2.1961413832 0.8287651225
H 1.9748074833 3.7914531958 -0.9031068366
H 1.9216590605 2.5062334661 -2.1513181223
C 2.8814701487 -0.7382181357 1.2556436394
C 4.4078826714 -0.8034301833 1.3641351109
H 2.4416457232 -0.2159385162 2.1332669364
H 2.4208909097 -1.7489120526 1.2492948380
H 4.6953876801 -1.2746488829 2.3254635125
H 4.8744890252 0.2017158822 1.3384328309
H 4.8579889177 -1.4141941201 0.5578806807
C 2.7354708707 -0.7250187790 -1.7553448251
C 4.1504337011 -0.4079302114 -2.2496477431
H 2.5944538890 -1.8103253732 -1.5625178844
H 1.9895817552 -0.4707333031 -2.5392223290
H 4.3958676580 -1.0568406494 -3.1140683691
H 4.9240053775 -0.5785596541 -1.4766676858
H 4.2431910229 0.6411155850 -2.5954712931
C -0.3168906261 3.3358717980 0.8565718284
C -1.5796350272 2.9891192866 1.6528826913
H 0.5815582462 3.2170519902 1.5012211733
H -0.3140040817 4.3941641637 0.5155141810
H -1.5609571762 3.4924802662 2.6399254316
H -1.6674141829 1.8984534827 1.8303747601
H -2.5015792361 3.3113708050 1.1326437216
C -0.9333437716 2.9589414217 -2.0584818641
C -2.4521544649 3.0133157818 -1.8791212002
H -0.6597306804 2.3160982766 -2.9226559174
H -0.5145177758 3.9690394134 -2.2593548778
H -2.7504079581 3.7465002099 -1.1042450486
H -2.8563395528 2.0246820316 -1.5901417030
H -2.9286334023 3.3285406205 -2.8284608425
51
step=28 E=-2803.687647012026 Eh
Co -0.0664595945 0.1035692803 -0.2060287582
P 2.1334320378 0.1127993671 -0.2013312352
P 0.0342015737 2.2766284904 -0.6159890061
O -1.9658724957 0.1113468941 -0.3134629711
O 0.0564286092 -1.7629479448 0.1425774336
C -2.7391949254 -0.9195759462 -0.1873535123
C -2.2886745263 -2.2346005307 0.0509997515
C -0.9360404408 -2.5942667191 0.2069806559
C -4.2137816102 -0.6294658992 -0.3074367811
C -0.5505114373 -4.0242436546 0.4848034154
H -3.0460720587 -3.0252170885 0.1341182835
H -4.8272241841 -1.5480491672 -0.2931780981
H -4.5318192089 0.0252671246 0.5307493732
H -4.4136047015 -0.0711083052 -1.2444027397
H -1.4141886735 -4.7106872377 0.4318420117
H 0.2255305598 -4.3508089761 -0.2365644971
H -0.0980337631 -4.0977661622 1.4961481652
C 2.7617281783 1.8621283700 -0.2259913309
C 1.7952236659 2.7148338773 -1.0578800339
H 3.8068687778 1.9317474203 -0.5914661947
H 2.7797829998 2.1996803064 0.8328648724
H 1.9662172944 3.8011663461 -0.9045613370
H 1.9163833261 2.5129496528 -2.1432925592
C 2.8800218739 -0.7313140063 1.2598192815
C 4.4055404038 -0.7866908399 1.3752099547
H 2.4336078466 -0.2142338012 2.1373478792
H 2.4238940013 -1.7439077072 1.2482356962
H 4.6899212964 -1.2552890912 2.3386774767
H 4.8680861072 0.2212961026 1.3529317279
H 4.8635781706 -1.3949120191 0.5712713324
C 2.7287277083 -0.7240702340 -1.7519976000
C 4.1455122891 -0.4265605043 -2.2534893089
H 2.5722220282 -1.8069734181 -1.5569606505
H 1.9826392860 -0.4590410190 -2.5321344987
H 4.3732975062 -1.0713211496 -3.1258528838
H 4.9228170098 -0.6184275150 -1.4897960780
H 4.2505128544 0.6242141422 -2.5902664017
C -0.3224334651 3.3488275072 0.8581347991
C -1.5690028252 2.9557082194 1.6574493823
H 0.5831533880 3.2683472200 1.4983611948
H -0.3604974489 4.4029454715 0.5059537637
H -1.5928203700 3.4906703791 2.6270551675
H -1.5818020848 1.8657759985 1.8632857492
H -2.5041128692 3.1954512553 1.1168363342
C -0.9311125807 2.9608767791 -2.0467134165
C -2.4497122877 3.0287059747 -1.8683521235
H -0.6645153094 2.3168430918 -2.9123041124
H -0.5084587099 3.9685160034 -2.2550377206
H -2.7415851374 3.7469075229 -1.0769612281
H -2.8685825307 2.0394322035 -1.6054773596
H -2.9233453197 3.3753599288 -2.8084371657
51
step=29 E=-2803.687758245271 Eh
Co -0.0619709405 0.1057190807 -0.2098043521
P 2.1373173634 0.1184184771 -0.2013660056
P 0.0379555310 2.2761223330 -0.6135873913
O -1.9625104124 0.1138434553 -0.3181134359
O 0.0626469340 -1.7628958067 0.1394436561
C -2.7340949039 -0.9171209800 -0.1868879598
C -2.2835187036 -2.2305989847 0.0597879139
C -0.9309443060 -2.5917459446 0.2098495159
C -4.2094168001 -0.6299248312 -0.3070706399
C -0.5466479333 -4.0228346637 0.4854880777
H -3.0383019771 -3.0234653550 0.1430407593
H -4.8209446280 -1.5497110598 -0.2861447829
H -4.5288227029 0.0293160606 0.5269275020
H -4.4114069967 -0.0795859579 -1.2481983724
H -1.4142343268 -4.7057473459 0.4542861347
H 0.2096380703 -4.3570728722 -0.2534879495
H -0.0709575331 -4.0947101648 1.4858759109
C 2.7672790174 1.8689111204 -0.2223489336
C 1.7984994174 2.7207732089 -1.0507870536
H 3.8111717341 1.9343900901 -0.5912373434
H 2.7848243146 2.2036753377 0.8374018850
H 1.9597289268 3.8100562952 -0.9073284476
H 1.9183218364 2.5204065263 -2.1370295582
C 2.8813007201 -0.7310298606 1.2586792000
C 4.4062164170 -0.7974457083 1.3799154282
H 2.4367920342 -0.2120450119 2.1361551629
H 2.4179475854 -1.7402593580 1.2438516355
H 4.6817360077 -1.2643780495 2.3467026433
H 4.8781410336 0.2054462480 1.3578441171
H 4.8633057584 -1.4117019016 0.5799479621
C 2.7315618106 -0.7176113793 -1.7539659290
C 4.1487189524 -0.4229249331 -2.2541620477
H 2.5701958333 -1.7992123950 -1.5555964795
H 1.9863140216 -0.4504017406 -2.5339551118
H 4.3711876185 -1.0595362496 -3.1339625055
H 4.9258776756 -0.6276915302 -1.4946911906
H 4.2597915838 0.6305419915 -2.5803872310
C -0.3327523992 3.3434173671 0.8623180260
C -1.5889387065 2.9632069202 1.6566545695
H 0.5678382588 3.2651974331 1.5090502244
H -0.3739771951 4.3957545769 0.5052043895
H -1.6267531575 3.5323547085 2.6058560718
H -1.6091964194 1.8813740112 1.9005804914
H -2.5175146746 3.1760618490 1.0940494037
C -0.9288153896 2.9483740371 -2.0418416813
C -2.4439459886 3.0330908201 -1.8597781860
H -0.6728476947 2.2927961117 -2.9022593748
H -0.4973409333 3.9483842741 -2.2709663332
H -2.7264412569 3.7585351683 -1.0715754402
H -2.8758060014 2.0504055588 -1.5914379881
H -2.9156073691 3.3816243118 -2.8000990114
51
step=30 E=-2803.687855730637 Eh
Co -0.0616248304 0.1046525451 -0.2131211959
P 2.1377987718 0.1198685718 -0.2034188374
P 0.0363631956 2.2762186020 -0.6157656826
O -1.9627555266 0.1142780901 -0.3244002748
O 0.0637333790 -1.7646099181 0.1365316088
C -2.7338176492 -0.9162382181 -0.1899758837
C -2.2838373202 -2.2288560378 0.0620046382
C -0.9312608910 -2.5908733554 0.2110969109
C -4.2089984887 -0.6295013387 -0.3105770689
C -0.5483134630 -4.0214948553 0.4902777701
H -3.0376808094 -3.0222287539 0.1464554794
H -4.8205008231 -1.5492942143 -0.2975931187
H -4.5301520205 0.0238445455 0.5275345965
H -4.4104278738 -0.0710297350 -1.2471178078
H -1.4186499118 -4.7014999500 0.4837194990
H 0.1901989991 -4.3662595992 -0.2619608864
H -0.0505106857 -4.0867141525 1.4803002142
C 2.7666751920 1.8708088820 -0.2281269060
C 1.7964666172 2.7227336802 -1.0549080428
H 3.8087892112 1.9315372212 -0.6024024527
H 2.7869378777 2.2077159396 0.8307546608
H 1.9610690346 3.8119407330 -0.9146475157
H 1.9147355960 2.5217082669 -2.1413874635
C 2.8804831380 -0.7261846032 1.2599930041
C 4.4054951683 -0.7852172552 1.3861196994
H 2.4304713044 -0.2092389004 2.1358629087
H 2.4210298937 -1.7372337980 1.2432271171
H 4.6801791945 -1.2539134172 2.3523244591
H 4.8716698402 0.2203660909 1.3698165486
H 4.8688871270 -1.3940792507 0.5858407399
C 2.7329848653 -0.7205689665 -1.7529629438
C 4.1505035466 -0.4260416473 -2.2506224648
H 2.5731583657 -1.8014348545 -1.5498333689
H 1.9886864420 -0.4575747859 -2.5352043995
H 4.3715320656 -1.0575240071 -3.1345264316
H 4.9268414010 -0.6380487467 -1.4918042652
H 4.2656804882 0.6290555954 -2.5703512997
C -0.3342030885 3.3402318721 0.8634341374
C -1.5770341722 2.9371835847 1.6654772447
H 0.5720577829 3.2805581484 1.5038878034
H -0.3974368624 4.3906649143 0.5039268373
H -1.6276468090 3.5141433655 2.6094970536
H -1.5647549922 1.8575192445 1.9192628554
H -2.5127625702 3.1214016097 1.1045288889
C -0.9332726365 2.9572005334 -2.0388486187
C -2.4489808186 3.0422828695 -1.8562322007
H -0.6767741515 2.3079719464 -2.9040365285
H -0.4985803804 3.9576321167 -2.2603387656
H -2.7295248942 3.7623702041 -1.0624829658
H -2.8758062518 2.0566161609 -1.5950284571
H -2.9217930973 3.3960549617 -2.7938432363
51
step=31 E=-2803.687981765435 Eh
Co -0.0602980967 0.1014695482 -0.2226953203
P 2.1397635113 0.1221956378 -0.2070705320
P 0.0325901879 2.2759978720 -0.6195875408
O -1.9619624147 0.1148536109 -0.3399208548
O 0.0648421374 -1.7682576713 0.1275945287
C -2.7333180642 -0.9134520500 -0.1951596137
C -2.2855185489 -2.2244309656 0.0690565534
C -0.9329722472 -2.5892948012 0.2147671424
C -4.2083578822 -0.6270566705 -0.3155425654
C -0.5535771479 -4.0194741719 0.5004707544
H -3.0390771687 -3.0167302776 0.1623310768
H -4.8207207322 -1.5461339453 -0.2983492314
H -4.5282478700 0.0297607064 0.5205737846
H -4.4123251116 -0.0703813634 -1.2526988837
H -1.4289811891 -4.6919403269 0.5388112361
H 0.1500269172 -4.3842830046 -0.2758199139
H -0.0155739842 -4.0747533504 1.4697108463
C 2.7648833696 1.8741618378 -0.2363198570
C 1.7917539111 2.7264997531 -1.0607230780
H 3.8034786045 1.9287169315 -0.6208696066
H 2.7914985347 2.2138230155 0.8212395468
H 1.9632831658 3.8154175215 -0.9262021793
H 1.9071047535 2.5226954516 -2.1474063690
C 2.8788151341 -0.7156153867 1.2632884116
C 4.4028539972 -0.7626007234 1.3944829708
H 2.4211842239 -0.1999167074 2.1357830216
H 2.4259378594 -1.7297945819 1.2465231202
H 4.6775410304 -1.2328001292 2.3600159965
H 4.8588379194 0.2478429658 1.3842480162
H 4.8750623923 -1.3640984656 0.5940599713
C 2.7430566727 -0.7274808368 -1.7490861051
C 4.1616640678 -0.4312723102 -2.2435738216
H 2.5898081691 -1.8073078747 -1.5363689528
H 2.0003903651 -0.4758414530 -2.5365205714
H 4.3809962272 -1.0493098381 -3.1374584148
H 4.9369575767 -0.6584519262 -1.4873059779
H 4.2834694722 0.6280545696 -2.5469546094
C -0.3402852839 3.3290329897 0.8672874368
C -1.5617831997 2.8877385337 1.6791745021
H 0.5744277475 3.2976178408 1.4972989911
H -0.4392533033 4.3768438148 0.5080601849
H -1.6380945860 3.4832640150 2.6102791068
H -1.4987513384 1.8164077514 1.9603470948
H -2.5059361301 3.0194900931 1.1174538937
C -0.9428370769 2.9750583275 -2.0331940647
C -2.4597132505 3.0624531009 -1.8465304070
H -0.6875934524 2.3352605590 -2.9058432622
H -0.5022231853 3.9756708592 -2.2417423862
H -2.7351605066 3.7789505399 -1.0478900567
H -2.8851321552 2.0750228298 -1.5896517542
H -2.9328378888 3.4200065060 -2.7822999287
51
step=32 E=-2803.688056318116 Eh
Co -0.0598148037 0.0983443808 -0.2321430547
P 2.1406847578 0.1243522621 -0.2107907084
P 0.0294171208 2.2738883448 -0.6234411869
O -1.9613030996 0.1136384305 -0.3519858775
O 0.0644348641 -1.7704408801 0.1198150513
C -2.7339188294 -0.9120582082 -0.1968928167
C -2.2872985999 -2.2214986518 0.0769261013
C -0.9347141951 -2.5884475866 0.2182091617
C -4.2088803410 -0.6249533387 -0.3168182522
C -0.5570291852 -4.0182754756 0.5075643985
H -3.0424094904 -3.0110057613 0.1807123912
H -4.8228997712 -1.5423951092 -0.2804881801
H -4.5241395787 0.0473529921 0.5087191630
H -4.4159016837 -0.0849167356 -1.2630072231
H -1.4354068746 -4.6848530716 0.5723119390
H 0.1242634161 -4.3942847805 -0.2833553998
H 0.0049850001 -4.0691273335 1.4631563518
C 2.7623180727 1.8779249621 -0.2416216488
C 1.7874317706 2.7281815967 -1.0652095831
H 3.7989026370 1.9323356613 -0.6317277850
H 2.7932941039 2.2190031028 0.8151901927
H 1.9587986126 3.8174237516 -0.9336226226
H 1.9019712689 2.5211108431 -2.1514415053
C 2.8769017609 -0.7077369323 1.2651563402
C 4.4011180013 -0.7525117666 1.4009903763
H 2.4159565727 -0.1903841027 2.1348650564
H 2.4261019084 -1.7228985975 1.2497254993
H 4.6743543303 -1.2227879131 2.3669345641
H 4.8552038482 0.2585338856 1.3919370332
H 4.8766490586 -1.3529573433 0.6017826794
C 2.7521969349 -0.7276287367 -1.7474194059
C 4.1711619569 -0.4270938070 -2.2370893833
H 2.6038750508 -1.8075333641 -1.5316455238
H 2.0112878429 -0.4828097470 -2.5386234274
H 4.3894498170 -1.0329360367 -3.1394705030
H 4.9449175158 -0.6665571548 -1.4828819018
H 4.2970744436 0.6359375249 -2.5257212106
C -0.3439874785 3.3175715623 0.8712343358
C -1.5561294822 2.8623123312 1.6884405134
H 0.5742905413 3.2935545629 1.4963518449
H -0.4551941694 4.3656208039 0.5163750260
H -1.6481514221 3.4711447466 2.6097693849
H -1.4669862869 1.7991210086 1.9897203178
H -2.5024454858 2.9637460924 1.1239798312
C -0.9496605186 2.9806938237 -2.0321869250
C -2.4653194679 3.0741263034 -1.8379898731
H -0.7010318424 2.3407435478 -2.9065374175
H -0.5053518555 3.9796032438 -2.2400773627
H -2.7336808595 3.7944672561 -1.0403671391
H -2.8913241875 2.0883694608 -1.5763513002
H -2.9420914110 3.4286449160 -2.7730042838
51
step=33 E=-2803.688137098470 Eh
Co -0.0601052669 0.0959054830 -0.2471521773
P 2.1404128078 0.1280226574 -0.2150836537
P 0.0237067919 2.2723648724 -0.6289525620
O -1.9606738580 0.1100939502 -0.3705665774
O 0.0631356957 -1.7705696950 0.1082298180
C -2.7351274948 -0.9119523088 -0.1993502309
C -2.2892253374 -2.2186474155 0.0885399984
C -0.9360955879 -2.5866592875 0.2228947386
C -4.2097502683 -0.6236094984 -0.3220246435
C -0.5579691995 -4.0152815665 0.5175632577
H -3.0465408008 -3.0036886306 0.2101186662
H -4.8268904549 -1.5367709792 -0.2484299215
H -4.5179397547 0.0807939660 0.4788974812
H -4.4187499621 -0.1197264163 -1.2876025507
H -1.4385652930 -4.6749425600 0.6149079912
H 0.0958898629 -4.4034730829 -0.2905975336
H 0.0332476563 -4.0600712902 1.4554646516
C 2.7571882179 1.8842115083 -0.2468817840
C 1.7798698937 2.7313722360 -1.0714078222
H 3.7921933901 1.9424031330 -0.6410579132
H 2.7930885090 2.2259994852 0.8094251419
H 1.9477771883 3.8211389411 -0.9403152568
H 1.8946422815 2.5205208722 -2.1567587172
C 2.8707038942 -0.6943650684 1.2687013280
C 4.3945628989 -0.7368268466 1.4073693386
H 2.4072597913 -0.1716692191 2.1338294601
H 2.4217181103 -1.7104021201 1.2590459078
H 4.6676635856 -1.2039256146 2.3748898675
H 4.8473630509 0.2749868726 1.3941386707
H 4.8714307053 -1.3395584071 0.6105984327
C 2.7668614027 -0.7286467341 -1.7432953804
C 4.1870190014 -0.4249894208 -2.2283195204
H 2.6238427615 -1.8084908428 -1.5231919874
H 2.0283316557 -0.4927302354 -2.5394484433
H 4.4033564258 -1.0153210085 -3.1412850249
H 4.9591638560 -0.6810470562 -1.4779174316
H 4.3179071128 0.6424241840 -2.4979414097
C -0.3481134086 3.3024416632 0.8757492286
C -1.5467941651 2.8306272420 1.7035914136
H 0.5765118964 3.2844302367 1.4918822422
H -0.4726626166 4.3517093221 0.5289723701
H -1.6566769368 3.4592861686 2.6097287125
H -1.4275172535 1.7792704397 2.0355654056
H -2.4955143554 2.8905311537 1.1372575382
C -0.9611801430 2.9877518218 -2.0305289410
C -2.4739245384 3.0894493494 -1.8209622941
H -0.7245346144 2.3467246147 -2.9072047348
H -0.5145894082 3.9849317187 -2.2404428161
H -2.7315543168 3.8190712637 -1.0281403098
H -2.9037777663 2.1085748021 -1.5456992334
H -2.9583970124 3.4364208853 -2.7549692846
51
step=34 E=-2803.688168502947 Eh
Co -0.0610338480 0.0965397159 -0.2532883681
P 2.1390595473 0.1306346766 -0.2170525107
P 0.0216279151 2.2723921035 -0.6302428990
O -1.9609232633 0.1082178115 -0.3764031656
O 0.0624434816 -1.7687980191 0.1040050199
C -2.7357720517 -0.9128155964 -0.1987489400
C -2.2892407982 -2.2182362650 0.0935647410
C -0.9357210150 -2.5857170240 0.2242443617
C -4.2102536577 -0.6241121710 -0.3228959039
C -0.5556881673 -4.0137775650 0.5193070764
H -3.0474114315 -3.0015972339 0.2220740658
H -4.8289012124 -1.5341114139 -0.2261084478
H -4.5144642357 0.1004561690 0.4611176310
H -4.4198554435 -0.1444244713 -1.3006419727
H -1.4361964718 -4.6723930542 0.6239741151
H 0.0918572105 -4.4031386605 -0.2933680482
H 0.0425314116 -4.0571942161 1.4527273363
C 2.7539999913 1.8882116798 -0.2480882836
C 1.7763610382 2.7332735638 -1.0736002489
H 3.7898378009 1.9509855982 -0.6396344919
H 2.7892545545 2.2294350599 0.8085034167
H 1.9400818835 3.8233108378 -0.9398200310
H 1.8926251385 2.5223812369 -2.1585499406
C 2.8666494647 -0.6880652896 1.2703148800
C 4.3906971416 -0.7340030364 1.4108488125
H 2.4037289237 -0.1609821106 2.1331203317
H 2.4161759203 -1.7033838774 1.2641711072
H 4.6625594041 -1.1980622066 2.3801473385
H 4.8466790029 0.2761249372 1.3930205249
H 4.8658336848 -1.3412443989 0.6163941136
C 2.7712940475 -0.7253723098 -1.7428965930
C 4.1924663683 -0.4212673973 -2.2241401616
H 2.6270731882 -1.8054490281 -1.5242308803
H 2.0347520061 -0.4891861042 -2.5408627029
H 4.4080408920 -1.0063473290 -3.1406139685
H 4.9630786247 -0.6841705902 -1.4747963968
H 4.3259876796 0.6474489550 -2.4870154297
C -0.3467674909 3.2991157365 0.8777354079
C -1.5419387794 2.8247792668 1.7092929764
H 0.5806338290 3.2783764754 1.4897593144
H -0.4716667556 4.3499306793 0.5358677929
H -1.6572335410 3.4587130177 2.6109453275
H -1.4111517585 1.7777621912 2.0477577818
H -2.4910477970 2.8703163201 1.1422472669
C -0.9672344050 2.9865232915 -2.0292433946
C -2.4786087303 3.0929850554 -1.8120198245
H -0.7385065915 2.3418688041 -2.9051968867
H -0.5209848247 3.9825345437 -2.2451634330
H -2.7303278408 3.8294316303 -1.0234682176
H -2.9121375098 2.1155804179 -1.5276449681
H -2.9679947171 3.4349590763 -2.7454432068
51
step=35 E=-2803.688188545258 Eh
Co -0.0624215647 0.0987723829 -0.2566923412
P 2.1369489347 0.1338525286 -0.2178144348
P 0.0191221151 2.2740618652 -0.6321990811
O -1.9618941722 0.1067718821 -0.3798654404
O 0.0628193144 -1.7658794193 0.1033349640
C -2.7361627449 -0.9146071548 -0.1993987165
C -2.2881833516 -2.2190204623 0.0949104156
C -0.9340694549 -2.5844584224 0.2245261761
C -4.2105590032 -0.6267559709 -0.3265319406
C -0.5513055217 -4.0115874783 0.5204764709
H -3.0457793220 -3.0026729547 0.2257006802
H -4.8300788059 -1.5342631515 -0.2135630772
H -4.5133264823 0.1131402305 0.4433214036
H -4.4193291633 -0.1656477308 -1.3135120122
H -1.4306702662 -4.6712343717 0.6277688727
H 0.0954119848 -4.4004298721 -0.2930798817
H 0.0490188256 -4.0528940871 1.4526709862
C 2.7505587042 1.8922048886 -0.2492641031
C 1.7729651003 2.7357898730 -1.0770830660
H 3.7880382321 1.9580692074 -0.6360132040
H 2.7825969276 2.2334805646 0.8075334441
H 1.9333805762 3.8258347966 -0.9392029868
H 1.8913676857 2.5265972871 -2.1619035343
C 2.8624486655 -0.6812732910 1.2720250284
C 4.3862744812 -0.7280127688 1.4134792680
H 2.3995497225 -0.1503506145 2.1325582550
H 2.4109915138 -1.6961165706 1.2694465506
H 4.6574209587 -1.1878177492 2.3849635100
H 4.8438498787 0.2816058559 1.3905858238
H 4.8604847919 -1.3395197879 0.6216999766
C 2.7723027983 -0.7233228170 -1.7421369874
C 4.1950393839 -0.4230399716 -2.2211175661
H 2.6239225241 -1.8031093279 -1.5245181965
H 2.0377392162 -0.4842930984 -2.5411392907
H 4.4099953738 -1.0081400237 -3.1377604703
H 4.9642033955 -0.6893045904 -1.4716514150
H 4.3311575113 0.6455041895 -2.4831003338
C -0.3455801965 3.2996657145 0.8767396495
C -1.5331515322 2.8208153089 1.7174779613
H 0.5856217906 3.2811933030 1.4831486781
H -0.4752885227 4.3504156174 0.5364917485
H -1.6482138084 3.4597350314 2.6154336080
H -1.3936280437 1.7758446698 2.0622631277
H -2.4851512099 2.8542342983 1.1544486060
C -0.9726626968 2.9869349266 -2.0282437760
C -2.4818716190 3.0963479902 -1.8019334806
H -0.7503019184 2.3409667996 -2.9048348435
H -0.5270465172 3.9823329861 -2.2484957306
H -2.7286213312 3.8358769523 -1.0145448725
H -2.9148471774 2.1208233189 -1.5113307701
H -2.9771641123 3.4365351636 -2.7330013817
51
step=36 E=-2803.688207276703 Eh
Co -0.0630416302 0.1019393684 -0.2567597667
P 2.1358209346 0.1374213415 -0.2175902085
P 0.0180598193 2.2768498381 -0.6318725024
O -1.9624308139 0.1076271689 -0.3789800143
O 0.0643370584 -1.7628973474 0.1049331532
C -2.7355033479 -0.9148622914 -0.1986803132
C -2.2861037425 -2.2188871059 0.0948866444
C -0.9316605612 -2.5828954100 0.2244669312
C -4.2099829560 -0.6286062707 -0.3274725299
C -0.5472471609 -4.0096947937 0.5198621668
H -3.0427199214 -3.0037870165 0.2241851454
H -4.8297235609 -1.5338396406 -0.1987137734
H -4.5112274734 0.1253384873 0.4289845838
H -4.4197419455 -0.1852424632 -1.3225244268
H -1.4255681597 -4.6711387627 0.6245660704
H 0.1023714747 -4.3966567128 -0.2922590687
H 0.0507424368 -4.0506446011 1.4535999890
C 2.7479645254 1.8962262803 -0.2489523899
C 1.7710422739 2.7394020117 -1.0781824681
H 3.7874179701 1.9641481617 -0.6299252055
H 2.7749884934 2.2372471474 0.8081994330
H 1.9303806235 3.8291207052 -0.9360689652
H 1.8912550998 2.5332293371 -2.1632593712
C 2.8602415838 -0.6762476014 1.2735739903
C 4.3837831338 -0.7254632065 1.4158770458
H 2.3980153472 -0.1422279562 2.1326068536
H 2.4068380024 -1.6901998702 1.2733182460
H 4.6534006640 -1.1814067171 2.3895769407
H 4.8436053295 0.2830405768 1.3886320071
H 4.8568951455 -1.3413860182 0.6268860514
C 2.7709670260 -0.7189310365 -1.7425867417
C 4.1956171508 -0.4230204118 -2.2186045545
H 2.6168222009 -1.7985341681 -1.5280880229
H 2.0388251515 -0.4739929252 -2.5420883388
H 4.4102129250 -1.0090732926 -3.1347970227
H 4.9629596288 -0.6919892853 -1.4682451590
H 4.3348793640 0.6450799556 -2.4806072853
C -0.3446584047 3.3032896396 0.8767644537
C -1.5265993142 2.8189316587 1.7223606788
H 0.5892051441 3.2891072903 1.4791707009
H -0.4806068509 4.3533149591 0.5368242724
H -1.6430989906 3.4588291650 2.6192853467
H -1.3776950633 1.7754401572 2.0671604454
H -2.4804529900 2.8432149761 1.1619651634
C -0.9773171701 2.9875751127 -2.0256363167
C -2.4860735511 3.0985085491 -1.7945205945
H -0.7590490094 2.3401951289 -2.9022007988
H -0.5318712090 3.9823716607 -2.2493986332
H -2.7292925504 3.8401268645 -1.0079332273
H -2.9195977755 2.1240499574 -1.4999578190
H -2.9845176662 3.4376025081 -2.7243150813
51
step=37 E=-2803.688229166478 Eh
Co -0.0633601924 0.1067821540 -0.2544252829
P 2.1350944488 0.1440946386 -0.2161542379
P 0.0164379229 2.2815219880 -0.6312294846
O -1.9629991540 0.1102185407 -0.3759134274
O 0.0671876884 -1.7585137318 0.1097021823
C -2.7341910412 -0.9140653221 -0.1978391101
C -2.2828981802 -2.2177925164 0.0939649993
C -0.9281100042 -2.5798919197 0.2252532604
C -4.2088877067 -0.6306990130 -0.3293165546
C -0.5423604097 -4.0063622709 0.5203279924
H -3.0376989381 -3.0050185369 0.2192297285
H -4.8286302065 -1.5325534293 -0.1788935407
H -4.5083840815 0.1418281077 0.4086024589
H -4.4208894062 -0.2114756616 -1.3345814033
H -1.4195536221 -4.6698483661 0.6216673593
H 0.1108868139 -4.3917323936 -0.2896433232
H 0.0524242741 -4.0469766702 1.4561663493
C 2.7450422675 1.9030283786 -0.2481461509
C 1.7687122030 2.7458511705 -1.0788385504
H 3.7866482424 1.9721195356 -0.6227984016
H 2.7654578345 2.2443725131 0.8091726438
H 1.9278073887 3.8350534129 -0.9319743611
H 1.8906502661 2.5437784395 -2.1644354247
C 2.8597040810 -0.6683319495 1.2757752121
C 4.3829878152 -0.7197148183 1.4196848138
H 2.3978661004 -0.1315807207 2.1333600529
H 2.4041594046 -1.6813230878 1.2773462717
H 4.6502782217 -1.1707603985 2.3963017759
H 4.8450760785 0.2877333436 1.3877657753
H 4.8558327791 -1.3408051032 0.6346619413
C 2.7679110023 -0.7112949899 -1.7424717068
C 4.1952202300 -0.4227140881 -2.2146812604
H 2.6052867640 -1.7905049563 -1.5325700039
H 2.0392506238 -0.4570940827 -2.5423324127
H 4.4086049308 -1.0100456189 -3.1304156499
H 4.9596879441 -0.6961715877 -1.4630616274
H 4.3401824090 0.6446771897 -2.4764522148
C -0.3466832512 3.3085784179 0.8769520400
C -1.5176158853 2.8119412652 1.7306949756
H 0.5907260450 3.3071876814 1.4738713464
H -0.4978371735 4.3558598118 0.5351307925
H -1.6384746149 3.4544949172 2.6250965138
H -1.3524766649 1.7718606243 2.0791532718
H -2.4743758474 2.8199460531 1.1747432374
C -0.9827970432 2.9911601156 -2.0221827263
C -2.4906766803 3.1034241260 -1.7844234664
H -0.7686245383 2.3431457168 -2.8993309954
H -0.5367598630 3.9851951590 -2.2484946512
H -2.7293009134 3.8449716534 -0.9963263959
H -2.9221486751 2.1289357273 -1.4876808595
H -2.9933398066 3.4431262852 -2.7116573587
51
step=38 E=-2803.688245047359 Eh
Co -0.0625737696 0.1114840518 -0.2494178346
P 2.1360039261 0.1508508046 -0.2128354344
P 0.0155255739 2.2862665956 -0.6287731260
O -1.9625480751 0.1141205529 -0.3708905639
O 0.0700676749 -1.7540875488 0.1160161043
C -2.7323012419 -0.9116461191 -0.1965087562
C -2.2797750550 -2.2154263951 0.0932204906
C -0.9249094924 -2.5763447553 0.2273644947
C -4.2071629334 -0.6308551124 -0.3309497912
C -0.5388800551 -4.0028138947 0.5220323101
H -3.0335539566 -3.0042168358 0.2143796485
H -4.8268008223 -1.5293198477 -0.1611145173
H -4.5052436870 0.1574747210 0.3904833565
H -4.4214107871 -0.2331493087 -1.3446408066
H -1.4156655374 -4.6673123957 0.6205490505
H 0.1166789140 -4.3873144598 -0.2865170610
H 0.0534880085 -4.0438459473 1.4593905470
C 2.7436670193 1.9099615894 -0.2450083193
C 1.7676091120 2.7528239480 -1.0759935070
H 3.7862698558 1.9796444831 -0.6166343974
H 2.7598968991 2.2514415231 0.8123760056
H 1.9270080414 3.8416977933 -0.9268401823
H 1.8899938656 2.5532991040 -2.1620559375
C 2.8618533046 -0.6621307286 1.2781244940
C 4.3848770083 -0.7143598181 1.4222942303
H 2.4004288097 -0.1251489365 2.1358044550
H 2.4053092925 -1.6747042929 1.2798081153
H 4.6510109375 -1.1619901867 2.4008158815
H 4.8479164882 0.2925263976 1.3873027046
H 4.8577331393 -1.3388064082 0.6399904949
C 2.7650424123 -0.7021444454 -1.7417994515
C 4.1948296343 -0.4205014398 -2.2113447424
H 2.5951346094 -1.7811756480 -1.5371405938
H 2.0391817743 -0.4387919978 -2.5413161975
H 4.4063564261 -1.0070856152 -3.1280070601
H 4.9568867240 -0.6996966831 -1.4593065611
H 4.3458690095 0.6466892104 -2.4705278209
C -0.3517971211 3.3136729295 0.8787733120
C -1.5130593383 2.8042499690 1.7379070677
H 0.5878646164 3.3276291693 1.4718091015
H -0.5195628369 4.3573041283 0.5336964330
H -1.6417891680 3.4499132768 2.6290799991
H -1.3316597629 1.7691810150 2.0921693381
H -2.4711500533 2.7954073980 1.1842183205
C -0.9860604383 2.9950328003 -2.0189447642
C -2.4936371316 3.1075439586 -1.7774615433
H -0.7736882596 2.3461215938 -2.8958804456
H -0.5394169184 3.9884792344 -2.2465572994
H -2.7293070233 3.8476837560 -0.9871881617
H -2.9237352114 2.1323444207 -1.4810300621
H -2.9985188234 3.4485542951 -2.7029158414
51
step=39 E=-2803.688257330794 Eh
Co -0.0614145872 0.1160427317 -0.2422147985
P 2.1375280509 0.1578354286 -0.2081057054
P 0.0147728440 2.2908008555 -0.6249238144
O -1.9616345926 0.1182430598 -0.3642525925
O 0.0721138540 -1.7493586720 0.1235748378
C -2.7305255946 -0.9086676322 -0.1945102389
C -2.2772849317 -2.2127381504 0.0930619351
C -0.9224622727 -2.5725799042 0.2308083834
C -4.2054581033 -0.6299413860 -0.3329379512
C -0.5362843314 -3.9991519505 0.5248822837
H -3.0303445553 -3.0026412835 0.2108455531
H -4.8251299222 -1.5251024902 -0.1464962146
H -4.5028686627 0.1717316607 0.3737868280
H -4.4207431540 -0.2513357442 -1.3538174398
H -1.4129723616 -4.6642698854 0.6202562120
H 0.1214024909 -4.3825289448 -0.2824929293
H 0.0536762579 -4.0410455051 1.4636915153
C 2.7436493151 1.9169614704 -0.2397099173
C 1.7671443599 2.7597664923 -1.0701932655
H 3.7861377211 1.9872958197 -0.6115682648
H 2.7588633791 2.2582341434 0.8177431224
H 1.9263018506 3.8486368741 -0.9209704926
H 1.8890986854 2.5610167704 -2.1565266787
C 2.8667483161 -0.6572048935 1.2801635277
C 4.3900040703 -0.7090815834 1.4238430775
H 2.4057748814 -0.1223071771 2.1393767112
H 2.4104807279 -1.6699347173 1.2802965558
H 4.6562593479 -1.1550145903 2.4031391727
H 4.8532732725 0.2976839070 1.3873640231
H 4.8629324892 -1.3350364583 0.6428183226
C 2.7623582916 -0.6919452698 -1.7400256413
C 4.1937271358 -0.4160982398 -2.2080694058
H 2.5867126959 -1.7709993479 -1.5405533469
H 2.0383552140 -0.4206644650 -2.5386125963
H 4.4028622329 -1.0006846952 -3.1265048775
H 4.9536224583 -0.7013168964 -1.4562873103
H 4.3506154720 0.6511718503 -2.4635450590
C -0.3591623098 3.3186838146 0.8814240861
C -1.5121949832 2.7978896535 1.7444885747
H 0.5816882094 3.3482771955 1.4718459857
H -0.5424738964 4.3582703276 0.5321307908
H -1.6495872856 3.4471234521 2.6319379022
H -1.3166523457 1.7682556189 2.1062519017
H -2.4705948600 2.7734253084 1.1917741422
C -0.9870059553 2.9983543168 -2.0164277413
C -2.4943912611 3.1104362243 -1.7733450377
H -0.7746108445 2.3484772295 -2.8926152510
H -0.5403333577 3.9915748078 -2.2446305404
H -2.7289177706 3.8481750052 -0.9805209305
H -2.9238358794 2.1343009524 -1.4791939957
H -3.0001000002 3.4535630478 -2.6975145090
51
step=40 E=-2803.688265361375 Eh
Co -0.0601699541 0.1196523730 -0.2345217149
P 2.1391642199 0.1629642745 -0.2028403693
P 0.0143285813 2.2942055020 -0.6202007014
O -1.9603714466 0.1215573853 -0.3576744978
O 0.0733055767 -1.7451849434 0.1305932808
C -2.7290038987 -0.9060754811 -0.1922870904
C -2.2754909141 -2.2104545440 0.0937335618
C -0.9207551509 -2.5693935696 0.2347395065
C -4.2038445395 -0.6285145699 -0.3349683506
C -0.5341553276 -3.9959612369 0.5283212309
H -3.0287207588 -3.0005187950 0.2095888815
H -4.8237115283 -1.5214086660 -0.1384450905
H -4.5015933593 0.1815831850 0.3618200200
H -4.4183083836 -0.2626208783 -1.3606903472
H -1.4107968173 -4.6614615504 0.6213161094
H 0.1250879032 -4.3781029574 -0.2783751170
H 0.0541715691 -4.0384762739 1.4680990334
C 2.7442567027 1.9225465576 -0.2332003490
C 1.7671796002 2.7650179832 -1.0629170249
H 3.7858775451 1.9937837762 -0.6074306878
H 2.7609360451 2.2632579441 0.8243576227
H 1.9253850042 3.8541904470 -0.9153659157
H 1.8886906638 2.5652481135 -2.1491805172
C 2.8715931485 -0.6547648918 1.2820470021
C 4.3950286288 -0.7040220055 1.4239208681
H 2.4105334401 -0.1236244958 2.1435323078
H 2.4173980620 -1.6684375957 1.2798752682
H 4.6631300307 -1.1495626730 2.4029003201
H 4.8565207714 0.3034262776 1.3870850786
H 4.8682617632 -1.3292426725 0.6424826141
C 2.7606730806 -0.6826700456 -1.7381960518
C 4.1933065488 -0.4107331448 -2.2053733241
H 2.5812612156 -1.7619637357 -1.5432974209
H 2.0375474794 -0.4055678047 -2.5356239230
H 4.4006486285 -0.9923957372 -3.1260070899
H 4.9517750477 -0.7013391487 -1.4541928260
H 4.3545189647 0.6569731723 -2.4563652961
C -0.3658713811 3.3232981705 0.8844096332
C -1.5137866684 2.7959600772 1.7500776192
H 0.5754664166 3.3641740462 1.4733080319
H -0.5593105597 4.3597331379 0.5312316523
H -1.6579141132 3.4485827721 2.6340875753
H -1.3087356890 1.7709016041 2.1185240499
H -2.4718503619 2.7599453751 1.1973783797
C -0.9861119867 2.9991440450 -2.0146678049
C -2.4934667373 3.1108766171 -1.7724522687
H -0.7727715657 2.3474993745 -2.8892581478
H -0.5397658767 3.9921898007 -2.2439076051
H -2.7284580709 3.8465001995 -0.9777968259
H -2.9236500050 2.1341156436 -1.4812628061
H -2.9985352707 3.4562276242 -2.6961517956
51
step=41 E=-2803.688271200866 Eh
Co -0.0594162143 0.1226104982 -0.2279308665
P 2.1400631728 0.1668280146 -0.1984959044
P 0.0137689701 2.2969542573 -0.6152720383
O -1.9594097259 0.1238088339 -0.3519511588
O 0.0736737266 -1.7417381474 0.1357354347
C -2.7280479316 -0.9042987512 -0.1896849480
C -2.2744557056 -2.2089085134 0.0952896158
C -0.9197069082 -2.5669904121 0.2382238740
C -4.2027107938 -0.6273185569 -0.3362809170
C -0.5323388958 -3.9934792131 0.5313603259
H -3.0275622350 -2.9991801524 0.2104501558
H -4.8229848261 -1.5182984340 -0.1323605058
H -4.5009850148 0.1893975630 0.3523580735
H -4.4156070741 -0.2716537403 -1.3659560028
H -1.4086955546 -4.6598624042 0.6205545352
H 0.1299732740 -4.3736612152 -0.2737146510
H 0.0528561653 -4.0365524508 1.4730534909
C 2.7449767821 1.9267293397 -0.2267353806
C 1.7669816939 2.7689522522 -1.0556502466
H 3.7855251328 1.9988776923 -0.6039307848
H 2.7644480484 2.2663763121 0.8310745534
H 1.9239347379 3.8585010784 -0.9099129874
H 1.8884578683 2.5679131861 -2.1417223967
C 2.8762441331 -0.6535326555 1.2831814539
C 4.4002166245 -0.7000728649 1.4232875157
H 2.4151642852 -0.1259649751 2.1468304945
H 2.4243684973 -1.6682316679 1.2787800467
H 4.6706292519 -1.1460348441 2.4014361723
H 4.8599413026 0.3081938558 1.3865077470
H 4.8734840325 -1.3237772452 0.6406694073
C 2.7601965951 -0.6753408815 -1.7360892016
C 4.1931491925 -0.4046567013 -2.2024211682
H 2.5792720335 -1.7549454637 -1.5440313707
H 2.0373270537 -0.3955105186 -2.5327954448
H 4.3996980476 -0.9838331472 -3.1247493791
H 4.9504268707 -0.6987082763 -1.4516025851
H 4.3567471132 0.6634800056 -2.4500690645
C -0.3708679162 3.3276254608 0.8872388589
C -1.5166117722 2.7978686746 1.7542616411
H 0.5705562648 3.3741796368 1.4755895777
H -0.5685677552 4.3624036708 0.5315150829
H -1.6636636717 3.4524968968 2.6363131081
H -1.3074605469 1.7749326467 2.1263377034
H -2.4743782793 2.7561564183 1.2014069620
C -0.9845181129 2.9990045432 -2.0129175179
C -2.4921576967 3.1097895052 -1.7732149406
H -0.7692305707 2.3463981212 -2.8862668549
H -0.5392079751 3.9923637435 -2.2426759789
H -2.7292513299 3.8439554621 -0.9777960622
H -2.9237036445 2.1327243733 -1.4846754615
H -2.9955803357 3.4567637214 -2.6972579141
51
step=42 E=-2803.688274847515 Eh
Co -0.0588506040 0.1248717810 -0.2229444309
P 2.1405746980 0.1694708563 -0.1950632675
P 0.0132182801 2.2990019639 -0.6107034242
O -1.9585811570 0.1252550810 -0.3477790412
O 0.0743964016 -1.7392887740 0.1390808255
C -2.7271337714 -0.9032760952 -0.1872707646
C -2.2733073732 -2.2078753624 0.0973429843
C -0.9184571415 -2.5652509198 0.2409338895
C -4.2016282908 -0.6267470574 -0.3366749772
C -0.5301897537 -3.9914970230 0.5339775335
H -3.0265237110 -2.9981421413 0.2122701689
H -4.8222118731 -1.5164887507 -0.1282929416
H -4.5004722742 0.1943573931 0.3463374781
H -4.4130109784 -0.2778953002 -1.3690339095
H -1.4060737875 -4.6588113789 0.6205395886
H 0.1347011515 -4.3701453710 -0.2696588922
H 0.0526373277 -4.0345124221 1.4771569756
C 2.7450136307 1.9300478110 -0.2214010141
C 1.7664259425 2.7717501983 -1.0498771462
H 3.7848019287 2.0029124990 -0.6006270001
H 2.7665209471 2.2688140600 0.8366121435
H 1.9220822011 3.8616527416 -0.9055533275
H 1.8885612696 2.5696659793 -2.1356856543
C 2.8787581239 -0.6525622227 1.2844858907
C 4.4028856049 -0.6952625629 1.4229916277
H 2.4168583094 -0.1279352045 2.1494863804
H 2.4296672948 -1.6684642278 1.2785240063
H 4.6756393559 -1.1411220655 2.4005070663
H 4.8597268115 0.3141871508 1.3859711632
H 4.8767713688 -1.3171641578 0.6393243145
C 2.7607524908 -0.6695402493 -1.7345093325
C 4.1944445591 -0.3992710949 -2.1991467380
H 2.5789234100 -1.7493996004 -1.5444674430
H 2.0383364537 -0.3880724345 -2.5310588382
H 4.4013173900 -0.9763413641 -3.1227166805
H 4.9506911025 -0.6959421404 -1.4482125502
H 4.3594173921 0.6693207099 -2.4438638942
C -0.3734165824 3.3313957456 0.8899772040
C -1.5179661072 2.8014706531 1.7585011364
H 0.5682433111 3.3798105812 1.4778650632
H -0.5720548232 4.3655720441 0.5330022329
H -1.6658525599 3.4574532442 2.6393394449
H -1.3063185536 1.7795910469 2.1321741076
H -2.4757599600 2.7562481872 1.2059135225
C -0.9833303728 2.9979277471 -2.0109170197
C -2.4912608325 3.1085245641 -1.7741136011
H -0.7666309745 2.3441958313 -2.8830572139
H -0.5385409067 3.9913191875 -2.2416122450
H -2.7302940578 3.8415968186 -0.9782051445
H -2.9240533937 2.1312743876 -1.4881101949
H -2.9927826442 3.4572141959 -2.6985932638
51
step=43 E=-2803.688278365660 Eh
Co -0.0584124311 0.1270253765 -0.2195308411
P 2.1408044995 0.1719606082 -0.1927557555
P 0.0126916448 2.3012013940 -0.6064081431
O -1.9579773951 0.1264855812 -0.3444248207
O 0.0755597918 -1.7374769219 0.1405122920
C -2.7261988756 -0.9025043173 -0.1844398318
C -2.2719437865 -2.2069950568 0.0998038816
C -0.9168864338 -2.5638898903 0.2426218997
C -4.2006298996 -0.6265919412 -0.3353818791
C -0.5279057314 -3.9899667367 0.5355654455
H -3.0247139131 -2.9976976697 0.2145935613
H -4.8214350567 -1.5146087352 -0.1203803252
H -4.4991874168 0.2001975840 0.3407163157
H -4.4118442120 -0.2863167328 -1.3707139925
H -1.4031278493 -4.6588588773 0.6165192799
H 0.1422670795 -4.3663031568 -0.2646970008
H 0.0495051854 -4.0333087378 1.4821030126
C 2.7448015797 1.9329404979 -0.2169647390
C 1.7656088778 2.7745041579 -1.0450630848
H 3.7842448265 2.0061942537 -0.5970735206
H 2.7674050730 2.2707242800 0.8413248509
H 1.9204523424 3.8645668679 -0.9009394427
H 1.8886830156 2.5725663264 -2.1307863654
C 2.8806499783 -0.6512351632 1.2855890297
C 4.4050678573 -0.6919398656 1.4231515098
H 2.4184713490 -0.1279227830 2.1512355639
H 2.4330078945 -1.6677492165 1.2788895755
H 4.6792993661 -1.1372483763 2.4004820580
H 4.8604639676 0.3181154076 1.3851461581
H 4.8790028578 -1.3132817239 0.6391122073
C 2.7623100163 -0.6649705214 -1.7328016888
C 4.1963319349 -0.3935796273 -2.1951994983
H 2.5807590110 -1.7450490131 -1.5436058880
H 2.0405027379 -0.3834501802 -2.5298532460
H 4.4045751246 -0.9695016211 -3.1191958977
H 4.9514216737 -0.6911136330 -1.4435079891
H 4.3615273567 0.6752998109 -2.4384683528
C -0.3743957137 3.3347839499 0.8928713220
C -1.5197912961 2.8066969259 1.7616879493
H 0.5671796007 3.3813504970 1.4811239725
H -0.5707925672 4.3693879897 0.5359002686
H -1.6654741436 3.4624364903 2.6429733391
H -1.3100003086 1.7837379169 2.1341069065
H -2.4779218979 2.7632386081 1.2094932671
C -0.9824838680 2.9979837048 -2.0082279631
C -2.4910575268 3.1070020755 -1.7749219736
H -0.7633829466 2.3445563742 -2.8800063816
H -0.5387128306 3.9919622186 -2.2385751931
H -2.7329774084 3.8391715857 -0.9790205794
H -2.9243402930 2.1293071309 -1.4909848756
H -2.9903526222 3.4564648061 -2.7003389632
51
step=44 E=-2803.688280710467 Eh
Co -0.0577050773 0.1291819648 -0.2172163193
P 2.1412912708 0.1749687421 -0.1907150399
P 0.0121723122 2.3035080675 -0.6024195145
O -1.9572182357 0.1276592491 -0.3421646370
O 0.0777857871 -1.7359579958 0.1408776574
C -2.7247830166 -0.9018436264 -0.1817401631
C -2.2697591043 -2.2060338802 0.1025431129
C -0.9144293988 -2.5625385406 0.2437892988
C -4.1993189073 -0.6269227195 -0.3329607927
C -0.5247509658 -3.9884182642 0.5366844646
H -3.0220158332 -2.9972357953 0.2172383748
H -4.8199238439 -1.5137747794 -0.1126421181
H -4.4974810103 0.2040252581 0.3381080048
H -4.4113087505 -0.2929850730 -1.3702679671
H -1.3993088429 -4.6585261184 0.6146518644
H 0.1486273061 -4.3633775213 -0.2614935815
H 0.0496319917 -4.0316518557 1.4851270541
C 2.7442085933 1.9364391678 -0.2137232237
C 1.7644399272 2.7775593125 -1.0415972786
H 3.7836658713 2.0100136066 -0.5936693500
H 2.7666017104 2.2737601427 0.8447148071
H 1.9186226048 3.8677228254 -0.8972982954
H 1.8882045589 2.5761959858 -2.1273384042
C 2.8813681626 -0.6482961797 1.2874877756
C 4.4057619206 -0.6866463509 1.4250493930
H 2.4181894228 -0.1256307360 2.1529998785
H 2.4350919726 -1.6653882969 1.2805089858
H 4.6806733463 -1.1303701722 2.4028910107
H 4.8595001910 0.3240740387 1.3855519979
H 4.8805156447 -1.3081299237 0.6416526174
C 2.7645578732 -0.6608093719 -1.7307443542
C 4.1994518570 -0.3891923018 -2.1904155958
H 2.5826800899 -1.7409320440 -1.5421335040
H 2.0439243024 -0.3788741510 -2.5286921295
H 4.4090504639 -0.9642383969 -3.1146838173
H 4.9532191857 -0.6879939054 -1.4377824547
H 4.3653337094 0.6798958702 -2.4322432015
C -0.3744313963 3.3375398979 0.8962907494
C -1.5195247806 2.8094647868 1.7655206528
H 0.5671694740 3.3828561624 1.4846555956
H -0.5698842260 4.3724828087 0.5398348722
H -1.6647924683 3.4650096992 2.6469552199
H -1.3087097478 1.7862542520 2.1371158503
H -2.4778481598 2.7653596466 1.2136824621
C -0.9825441380 2.9992328051 -2.0048975857
C -2.4916766535 3.1073663940 -1.7743881935
H -0.7616837395 2.3463763005 -2.8766927599
H -0.5390846855 3.9935598661 -2.2345558521
H -2.7355736352 3.8374710462 -0.9771753317
H -2.9249430980 2.1288116018 -1.4939695253
H -2.9889555880 3.4591620226 -2.7000033374
51
step=45 E=-2803.688283665641 Eh
Co -0.0564857824 0.1316955739 -0.2154791903
P 2.1423772872 0.1786652188 -0.1885605376
P 0.0120616615 2.3064538118 -0.5983702156
O -1.9561123019 0.1291688601 -0.3398570810
O 0.0809943014 -1.7343129467 0.1402273093
C -2.7227716733 -0.9008856004 -0.1784098054
C -2.2666919841 -2.2047433422 0.1055613274
C -0.9110269037 -2.5609613161 0.2443634997
C -4.1975689772 -0.6272408637 -0.3288214653
C -0.5207929989 -3.9867329200 0.5370057126
H -3.0183219698 -2.9965393638 0.2202321857
H -4.8177300360 -1.5123657209 -0.1004493923
H -4.4945119775 0.2092857350 0.3357506931
H -4.4117564758 -0.3018643482 -1.3684755460
H -1.3945757465 -4.6585990217 0.6084579641
H 0.1586672651 -4.3592011542 -0.2571025993
H 0.0472041612 -4.0305507871 1.4893361351
C 2.7439287468 1.9405235879 -0.2105762970
C 1.7636438174 2.7814881999 -1.0380323576
H 3.7836309796 2.0144706179 -0.5896831140
H 2.7652752411 2.2774599113 0.8480115998
H 1.9175330096 3.8715790400 -0.8926299340
H 1.8877931863 2.5815151117 -2.1239781475
C 2.8819552098 -0.6443839156 1.2902090504
C 4.4063248154 -0.6827649284 1.4280591480
H 2.4185943820 -0.1210843082 2.1552495196
H 2.4355051470 -1.6613909762 1.2835542426
H 4.6810340011 -1.1241788770 2.4069996522
H 4.8602066366 0.3277493532 1.3860384299
H 4.8810021577 -1.3062210020 0.6462167866
C 2.7676417693 -0.6564159737 -1.7280659054
C 4.2032745229 -0.3839077701 -2.1848928223
H 2.5859761959 -1.7366076909 -1.5398062269
H 2.0483053553 -0.3745042870 -2.5271677770
H 4.4147650369 -0.9584325347 -3.1090779294
H 4.9556937613 -0.6830005736 -1.4309709751
H 4.3693203894 0.6853377129 -2.4258808345
C -0.3739790174 3.3399831729 0.9005374327
C -1.5207795639 2.8136300986 1.7688948141
H 0.5672156781 3.3823197954 1.4897956962
H -0.5668828314 4.3756734548 0.5449241234
H -1.6638869557 3.4682697255 2.6513397346
H -1.3132964504 1.7890353039 2.1388589730
H -2.4792984823 2.7733183224 1.2170942276
C -0.9824649961 3.0023036077 -2.0008046765
C -2.4924047675 3.1068622434 -1.7736636605
H -0.7582490146 2.3514919422 -2.8733061061
H -0.5404103248 3.9978659571 -2.2279608868
H -2.7396152976 3.8340358217 -0.9748239072
H -2.9243539768 2.1265610939 -1.4973311153
H -2.9877105741 3.4604926748 -2.6996104182
51
step=46 E=-2803.688285767986 Eh
Co -0.0546222640 0.1351218753 -0.2137402983
P 2.1441647945 0.1844574339 -0.1853578977
P 0.0118303597 2.3103536702 -0.5937957846
O -1.9543767016 0.1309710254 -0.3378299264
O 0.0854253371 -1.7316778646 0.1392756806
C -2.7198095766 -0.8996956402 -0.1747065309
C -2.2622716464 -2.2030569253 0.1093222988
C -0.9061591544 -2.5586740829 0.2451807860
C -4.1950527854 -0.6277393459 -0.3236196328
C -0.5147933119 -3.9842826644 0.5371612131
H -3.0129533635 -2.9956188883 0.2245818606
H -4.8142433320 -1.5120875574 -0.0896535199
H -4.4912129552 0.2120309404 0.3371821850
H -4.4116880100 -0.3077497077 -1.3644748333
H -1.3877625869 -4.6574580143 0.6061641516
H 0.1672396359 -4.3551188264 -0.2554695714
H 0.0509513344 -4.0282092357 1.4908869741
C 2.7438065083 1.9467344891 -0.2074826897
C 1.7624886972 2.7870418429 -1.0344962189
H 3.7837471955 2.0216232707 -0.5856706386
H 2.7638004117 2.2837087263 0.8511419199
H 1.9157591068 3.8771410288 -0.8883370037
H 1.8861659878 2.5882010643 -2.1207047191
C 2.8826934121 -0.6372193912 1.2947018244
C 4.4069362564 -0.6748544810 1.4341375927
H 2.4182222853 -0.1133654898 2.1588145092
H 2.4365271478 -1.6543567336 1.2882978468
H 4.6807133170 -1.1129535976 2.4148388569
H 4.8608207689 0.3356019155 1.3892282993
H 4.8825122931 -1.3008960863 0.6549265524
C 2.7717280901 -0.6512130726 -1.7234310217
C 4.2084729606 -0.3796353032 -2.1773807755
H 2.5890376248 -1.7312431878 -1.5354281034
H 2.0542108007 -0.3686118379 -2.5239133636
H 4.4209258208 -0.9534762126 -3.1017765448
H 4.9591651468 -0.6804548406 -1.4224072179
H 4.3760793609 0.6896855683 -2.4169480332
C -0.3738574665 3.3423327229 0.9062039885
C -1.5197361626 2.8135051847 1.7740201255
H 0.5672165750 3.3852007642 1.4955905711
H -0.5681243877 4.3780178995 0.5513523289
H -1.6652933938 3.4681804504 2.6560844685
H -1.3092392637 1.7897712502 2.1448347994
H -2.4778545874 2.7705207116 1.2217407687
C -0.9832612811 3.0078080440 -1.9954332054
C -2.4939502196 3.1088060921 -1.7709339056
H -0.7559103713 2.3599750881 -2.8693772923
H -0.5425840399 4.0048138730 -2.2189791950
H -2.7440150539 3.8302038376 -0.9677810968
H -2.9245024880 2.1259567343 -1.5023138079
H -2.9874658748 3.4677647650 -2.6957663947
51
step=47 E=-2803.688288256817 Eh
Co -0.0520738555 0.1390910722 -0.2117777557
P 2.1467884058 0.1910655023 -0.1811105099
P 0.0121243075 2.3148837722 -0.5892803667
O -1.9519813956 0.1330720106 -0.3352606735
O 0.0905230513 -1.7281785308 0.1383366016
C -2.7161597494 -0.8981850314 -0.1705502137
C -2.2569757792 -2.2010888052 0.1130592018
C -0.9003640738 -2.5558472519 0.2459153155
C -4.1919192731 -0.6278895163 -0.3175152039
C -0.5075550029 -3.9812665211 0.5368629657
H -3.0069505978 -2.9941922669 0.2293454485
H -4.8099661364 -1.5116223798 -0.0782385736
H -4.4872093802 0.2146240437 0.3401655450
H -4.4111542415 -0.3127315667 -1.3593150725
H -1.3795780326 -4.6561587174 0.6009188473
H 0.1788713289 -4.3493100244 -0.2532077360
H 0.0537940401 -4.0258839854 1.4932036392
C 2.7443663250 1.9538962915 -0.2038239454
C 1.7621758167 2.7935575595 -1.0303095924
H 3.7844669113 2.0302092405 -0.5812428526
H 2.7630538897 2.2910137926 0.8547956940
H 1.9147603334 3.8836085703 -0.8831330247
H 1.8851707182 2.5957250414 -2.1167718088
C 2.8835676159 -0.6288726641 1.3007477361
C 4.4076162381 -0.6674207555 1.4417535659
H 2.4185820489 -0.1038418773 2.1638697783
H 2.4368559979 -1.6457869546 1.2949690533
H 4.6800185719 -1.1017643847 2.4245211800
H 4.8627459067 0.3422754846 1.3932715165
H 4.8832812396 -1.2972629767 0.6656579570
C 2.7764076314 -0.6451483850 -1.7178499187
C 4.2142012066 -0.3743943571 -2.1692684343
H 2.5927208374 -1.7250678337 -1.5303282697
H 2.0605675859 -0.3618381559 -2.5195994622
H 4.4277288392 -0.9475318627 -3.0938364103
H 4.9633671254 -0.6764289354 -1.4132438771
H 4.3830971495 0.6950196770 -2.4075261629
C -0.3738145241 3.3445298271 0.9124785824
C -1.5199227190 2.8147216777 1.7794828530
H 0.5670932516 3.3877094992 1.5020459487
H -0.5689473228 4.3802439454 0.5581681711
H -1.6669011238 3.4696922325 2.6611728752
H -1.3095212223 1.7915447525 2.1517248289
H -2.4776567794 2.7713852937 1.2265682607
C -0.9836058751 3.0146392166 -1.9896133592
C -2.4950738822 3.1088399132 -1.7680805801
H -0.7516628202 2.3712326335 -2.8656285150
H -0.5460220619 4.0141742934 -2.2078210803
H -2.7494874232 3.8230566251 -0.9599283188
H -2.9229728674 2.1224561369 -1.5082775818
H -2.9873690699 3.4731967366 -2.6914429840
51
step=48 E=-2803.688289486208 Eh
Co -0.0497196968 0.1429231015 -0.2098602987
P 2.1492058494 0.1975769497 -0.1767043033
P 0.0122753779 2.3190332557 -0.5858295299
O -1.9496162448 0.1348151563 -0.3330968390
O 0.0947390145 -1.7242488626 0.1382110998
C -2.7127944518 -0.8969178983 -0.1672830308
C -2.2522151332 -2.1994657232 0.1159761901
C -0.8951423173 -2.5530490308 0.2469168865
C -4.1889901651 -0.6278565650 -0.3127131956
C -0.5004969538 -3.9782345043 0.5365942816
H -3.0014011336 -2.9930953328 0.2336943387
H -4.8059237368 -1.5124364143 -0.0736706426
H -4.4844717464 0.2135822125 0.3462738073
H -4.4093905904 -0.3118196841 -1.3539670194
H -1.3717410570 -4.6542011408 0.5998119768
H 0.1865667635 -4.3445177457 -0.2537170595
H 0.0606901365 -4.0231024062 1.4930242404
C 2.7451476375 1.9608934734 -0.2005395790
C 1.7620308909 2.7996807664 -1.0268757373
H 3.7851622994 2.0388581430 -0.5779025688
H 2.7634388550 2.2982815074 0.8580217690
H 1.9136385910 3.8898229969 -0.8795360774
H 1.8843200314 2.6018248449 -2.1134083351
C 2.8847440272 -0.6201625815 1.3069021015
C 4.4086671409 -0.6586984898 1.4499313220
H 2.4187424671 -0.0944564209 2.1690545167
H 2.4382487100 -1.6371966753 1.3015622177
H 4.6797215336 -1.0900118456 2.4344170150
H 4.8645493681 0.3505930598 1.3988959243
H 4.8850047738 -1.2913057521 0.6764824534
C 2.7805848935 -0.6398223801 -1.7119284215
C 4.2191830504 -0.3708961901 -2.1617999898
H 2.5952449637 -1.7195126792 -1.5246986270
H 2.0660870962 -0.3556550444 -2.5145998960
H 4.4327451753 -0.9434300499 -3.0867060360
H 4.9671038426 -0.6746326858 -1.4053249300
H 4.3898854397 0.6985043336 -2.3988650146
C -0.3743691046 3.3462803118 0.9177286236
C -1.5182257259 2.8126455663 1.7850684510
H 0.5669314627 3.3927586251 1.5063546153
H -0.5733403129 4.3814016590 0.5637459296
H -1.6693278667 3.4687430166 2.6652814074
H -1.3029540079 1.7915982557 2.1602417844
H -2.4753903563 2.7635910244 1.2316412592
C -0.9843317794 3.0212717053 -1.9846123858
C -2.4963174729 3.1095828702 -1.7647009175
H -0.7490056552 2.3823364719 -2.8629922876
H -0.5498175431 4.0232094312 -2.1978024463
H -2.7540808706 3.8163135387 -0.9510418928
H -2.9222564220 2.1200523332 -1.5139499029
H -2.9881606902 3.4803719063 -2.6857651614
51
step=49 E=-2803.688290181396 Eh
Co -0.0481488859 0.1454903205 -0.2083042922
P 2.1507967609 0.2017097957 -0.1734569601
P 0.0125280807 2.3216940040 -0.5841293686
O -1.9479698008 0.1359321451 -0.3312658496
O 0.0972062914 -1.7213015053 0.1390456915
C -2.7106242723 -0.8961458106 -0.1653850584
C -2.2492050052 -2.1985622989 0.1172045907
C -0.8918398309 -2.5511177484 0.2477125754
C -4.1870374852 -0.6276386545 -0.3099670821
C -0.4958124182 -3.9760933555 0.5364922577
H -2.9979944690 -2.9924710627 0.2357396554
H -4.8033011935 -1.5133969244 -0.0735856902
H -4.4830971139 0.2114653468 0.3517402477
H -4.4075129617 -0.3085545306 -1.3502429782
H -1.3664962575 -4.6528704936 0.5987133550
H 0.1918893647 -4.3409660321 -0.2539025729
H 0.0649634816 -4.0212300770 1.4931400363
C 2.7458179975 1.9654616351 -0.1979229327
C 1.7624395767 2.8036054643 -1.0245308149
H 3.7856909715 2.0444657263 -0.5755280671
H 2.7642524749 2.3030034779 0.8605884133
H 1.9132544957 3.8938414606 -0.8772579652
H 1.8849167078 2.6052930403 -2.1109464998
C 2.8855233438 -0.6145132829 1.3113268464
C 4.4093423341 -0.6530744694 1.4555203029
H 2.4189450244 -0.0882368263 2.1728146383
H 2.4392349080 -1.6316511238 1.3065069241
H 4.6796251696 -1.0828533275 2.4408835766
H 4.8656214559 0.3559567032 1.4031525580
H 4.8859994364 -1.2870690741 0.6833883937
C 2.7832324724 -0.6360237234 -1.7080798296
C 4.2222420888 -0.3680390268 -2.1571569878
H 2.5968672384 -1.7156192836 -1.5212080066
H 2.0693719922 -0.3513129834 -2.5111583967
H 4.4359615526 -0.9402459996 -3.0822151720
H 4.9696014641 -0.6724833519 -1.4004541242
H 4.3937660940 0.7013591922 -2.3936626774
C -0.3749036299 3.3474233481 0.9205123211
C -1.5169687084 2.8115472321 1.7888165047
H 0.5669213814 3.3961692058 1.5080943122
H -0.5764621372 4.3821736975 0.5668459755
H -1.6700294495 3.4685051773 2.6680464008
H -1.2987312950 1.7917920970 2.1657192283
H -2.4740274085 2.7586497445 1.2355296869
C -0.9845458547 3.0251996304 -1.9818197833
C -2.4967991763 3.1088932314 -1.7628249163
H -0.7469779706 2.3895036976 -2.8619332718
H -0.5526521168 4.0289758960 -2.1916375859
H -2.7570409802 3.8110150677 -0.9459461198
H -2.9211720787 2.1173221535 -1.5173112049
H -2.9887892161 3.4832520233 -2.6823922288
51
step=50 E=-2803.688290497549 Eh
Co -0.0470555153 0.1475172524 -0.2068907786
P 2.1518223730 0.2048710107 -0.1709368911
P 0.0126744216 2.3237218418 -0.5830132009
O -1.9467987885 0.1368326984 -0.3295160206
O 0.0989333746 -1.7189587143 0.1404905013
C -2.7090388164 -0.8956295342 -0.1640701526
C -2.2469987132 -2.1980084153 0.1176892436
C -0.8894247713 -2.5496620207 0.2484849607
C -4.1855847473 -0.6275125219 -0.3080836772
C -0.4923522049 -3.9744712988 0.5366350374
H -2.9953406051 -2.9923189312 0.2363767603
H -4.8013394334 -1.5145213964 -0.0751017553
H -4.4823812083 0.2089294475 0.3566675343
H -4.4058665278 -0.3047549042 -1.3472460531
H -1.3625758745 -4.6519073255 0.5981736429
H 0.1957670659 -4.3383544362 -0.2538514943
H 0.0681822692 -4.0197681438 1.4934030710
C 2.7461846792 1.9689641537 -0.1954225661
C 1.7627991825 2.8065845040 -1.0226047120
H 3.7859776177 2.0484847256 -0.5731979179
H 2.7648014681 2.3065317732 0.8630693334
H 1.9129284936 3.8969276346 -0.8754980745
H 1.8860453789 2.6078169079 -2.1088421722
C 2.8861741632 -0.6103612528 1.3145952893
C 4.4099396752 -0.6486742116 1.4596515596
H 2.4191195776 -0.0835845714 2.1755196508
H 2.4401351523 -1.6276125631 1.3102797660
H 4.6797302879 -1.0777840671 2.4454302638
H 4.8662245833 0.3603385773 1.4067406328
H 4.8869775972 -1.2831245424 0.6881236312
C 2.7852872475 -0.6327774150 -1.7052454596
C 4.2245229664 -0.3651587092 -2.1536245930
H 2.5983276624 -1.7123441488 -1.5187002469
H 2.0718535589 -0.3477210514 -2.5085972757
H 4.4385512876 -0.9371758246 -3.0787307412
H 4.9715064389 -0.6699515877 -1.3967329259
H 4.3964350109 0.7042409950 -2.3898564925
C -0.3755379440 3.3484591450 0.9221928585
C -1.5157149361 2.8103313181 1.7915702337
H 0.5667828677 3.3989680786 1.5088408711
H -0.5792947822 4.3829685117 0.5690590403
H -1.6702064256 3.4677461882 2.6701725265
H -1.2942941353 1.7915340858 2.1692461051
H -2.4728024686 2.7537833069 1.2386639217
C -0.9846253072 3.0277700050 -1.9800293165
C -2.4971098678 3.1084058977 -1.7617009751
H -0.7456191791 2.3943788769 -2.8614132207
H -0.5545827302 4.0328053959 -2.1876742148
H -2.7590685500 3.8078139992 -0.9430144330
H -2.9204335586 2.1156210719 -1.5191641714
H -2.9891803166 3.4847610652 -2.6804264501
51
step=51 E=-2803.688290776749 Eh
Co -0.0458481851 0.1497533295 -0.2051347466
P 2.1529200266 0.2083242498 -0.1682036751
P 0.0128859420 2.3259835063 -0.5815476974
O -1.9455738076 0.1379623680 -0.3271733379
O 0.1010479222 -1.7165483704 0.1425724538
C -2.7072522017 -0.8950675655 -0.1625309861
C -2.2444562779 -2.1974257734 0.1180260879
C -0.8866708689 -2.5481139189 0.2493936571
C -4.1839549814 -0.6275279649 -0.3058562868
C -0.4886596453 -3.9727534880 0.5370530150
H -2.9922689616 -2.9923161114 0.2361947088
H -4.7991165401 -1.5157341907 -0.0758975845
H -4.4814560245 0.2064741459 0.3616544777
H -4.4043266110 -0.3014380817 -1.3439506278
H -1.3583352158 -4.6510684802 0.5967433545
H 0.2009693767 -4.3353949770 -0.2526822242
H 0.0704209572 -4.0182859431 1.4946588918
C 2.7464023081 1.9728187351 -0.1920849711
C 1.7631827719 2.8098919401 -1.0200337893
H 3.7862320120 2.0526237143 -0.5697355353
H 2.7648456951 2.3103118137 0.8664143022
H 1.9125652217 3.9003389971 -0.8729397559
H 1.8876814725 2.6109196694 -2.1060845499
C 2.8868320946 -0.6062972732 1.3179257344
C 4.4105286076 -0.6445400179 1.4636662251
H 2.4194682673 -0.0788438927 2.1782783552
H 2.4407892642 -1.6235417813 1.3141981030
H 4.6798717798 -1.0732522321 2.4497273753
H 4.8667954453 0.3644569486 1.4103917060
H 4.8878475147 -1.2792631121 0.6925365850
C 2.7877030693 -0.6285946710 -1.7024366982
C 4.2271837606 -0.3606656147 -2.1497260260
H 2.6005733347 -1.7082375737 -1.5164563559
H 2.0747531764 -0.3432196869 -2.5061129354
H 4.4419751378 -0.9323968970 -3.0748438085
H 4.9737664784 -0.6655795168 -1.3924824056
H 4.3990968449 0.7088100750 -2.3856197359
C -0.3763764622 3.3498415973 0.9239838674
C -1.5150308715 2.8097164038 1.7941959659
H 0.5662625482 3.4014497431 1.5100496601
H -0.5817879905 4.3842608971 0.5715634069
H -1.6704493474 3.4672745502 2.6724834652
H -1.2910343730 1.7915131924 2.1720431145
H -2.4721851358 2.7503465292 1.2416747410
C -0.9843794312 3.0301413151 -1.9782363923
C -2.4971711506 3.1078838455 -1.7609898675
H -0.7437440582 2.3987638303 -2.8606285181
H -0.5560149071 4.0363028147 -2.1839927624
H -2.7609885323 3.8054196679 -0.9412814273
H -2.9192573391 2.1140738843 -1.5204016043
H -2.9890850427 3.4851566441 -2.6794245101
51
step=52 E=-2803.688291091738 Eh
Co -0.0442012931 0.1526188757 -0.2027272076
P 2.1544358576 0.2128827728 -0.1646708418
P 0.0131889344 2.3289442360 -0.5791328947
O -1.9439781206 0.1395199620 -0.3238991606
O 0.1041038853 -1.7136558803 0.1453799061
C -2.7048040997 -0.8943401583 -0.1603762844
C -2.2409557158 -2.1966603461 0.1185375545
C -0.8829193975 -2.5461988819 0.2506066667
C -4.1817404774 -0.6277311633 -0.3027655413
C -0.4838922721 -3.9706533659 0.5377896324
H -2.9880183808 -2.9924220128 0.2355146796
H -4.7960941842 -1.5171574680 -0.0753820373
H -4.4799253757 0.2039806274 0.3673149494
H -4.4026255921 -0.2986250378 -1.3397964114
H -1.3528401460 -4.6501805711 0.5943506187
H 0.2084606547 -4.3316018362 -0.2503229790
H 0.0724618556 -4.0165146678 1.4969810826
C 2.7465582258 1.9778786335 -0.1872639607
C 1.7635152153 2.8142846565 -1.0161408527
H 3.7865651594 2.0580357700 -0.5643708938
H 2.7642624507 2.3151690790 0.8712880036
H 1.9119415283 3.9048488301 -0.8688813082
H 1.8895839634 2.6154336475 -2.1020315845
C 2.8878032406 -0.6014900976 1.3219244254
C 4.4114244557 -0.6399815358 1.4682801733
H 2.4202942483 -0.0732334727 2.1817232460
H 2.4414375893 -1.6185838542 1.3187601496
H 4.6802648290 -1.0684417549 2.4545793267
H 4.8678333029 0.3689413034 1.4147263038
H 4.8889024386 -1.2750125726 0.6975058068
C 2.7911038866 -0.6226970015 -1.6988911740
C 4.2308680786 -0.3537662627 -2.1446053637
H 2.6042632982 -1.7025330608 -1.5137599541
H 2.0787819585 -0.3370465445 -2.5030241554
H 4.4468883501 -0.9250033545 -3.0697573074
H 4.9769161098 -0.6586916871 -1.3868236374
H 4.4024564753 0.7158855384 -2.3799384627
C -0.3776742158 3.3518453492 0.9265895315
C -1.5152168441 2.8096230826 1.7970340960
H 0.5649801925 3.4042642040 1.5125881512
H -0.5844983035 4.3862258299 0.5749276444
H -1.6717995333 3.4671140817 2.6751342960
H -1.2888645465 1.7919073395 2.1748833114
H -2.4722428573 2.7477906303 1.2445480822
C -0.9837622371 3.0329225143 -1.9759287803
C -2.4969985695 3.1076483086 -1.7604205058
H -0.7409743943 2.4034174375 -2.8590827530
H -0.5570345091 4.0401839138 -2.1798037077
H -2.7630825479 3.8037636417 -0.9402287845
H -2.9176000186 2.1128501590 -1.5212976806
H -2.9883810683 3.4850677904 -2.6790681985
51
step=53 E=-2803.688291580479 Eh
Co -0.0419114205 0.1561889617 -0.1994765936
P 2.1566131723 0.2187547106 -0.1600076639
P 0.0136435757 2.3326894827 -0.5754483815
O -1.9418014254 0.1415041871 -0.3195722842
O 0.1083442756 -1.7101456932 0.1489505957
C -2.7014727924 -0.8934511331 -0.1575107302
C -2.2362269272 -2.1956957514 0.1193467666
C -0.8778922591 -2.5438364140 0.2522157829
C -4.1787294118 -0.6281570499 -0.2987923495
C -0.4776700095 -3.9680599460 0.5389231036
H -2.9823699552 -2.9925757376 0.2344989616
H -4.7920430719 -1.5188632532 -0.0736250913
H -4.4776254213 0.2013438422 0.3737367513
H -4.4004516486 -0.2962792053 -1.3347599202
H -1.3456685126 -4.6491681748 0.5909705242
H 0.2187262156 -4.3267433793 -0.2466317686
H 0.0745867503 -4.0143326509 1.5004902318
C 2.7467476000 1.9844128607 -0.1806186707
C 1.7638193175 2.8199770132 -1.0104977394
H 3.7870778860 2.0653045963 -0.5566747685
H 2.7629879525 2.3213313537 0.8780488982
H 1.9109670196 3.9106781614 -0.8628777406
H 1.8916311224 2.6215973142 -2.0962751033
C 2.8892974697 -0.5958225628 1.3268491945
C 4.4128409686 -0.6350188362 1.4736322203
H 2.4218717561 -0.0668154284 2.1862522022
H 2.4422764312 -1.6126170353 1.3240428122
H 4.6811757307 -1.0634445237 2.4600823732
H 4.8696686979 0.3737090382 1.4199436390
H 4.8902336206 -1.2704216698 0.7031148559
C 2.7957645691 -0.6147347890 -1.6943212482
C 4.2358115574 -0.3439226099 -2.1380390293
H 2.6098298529 -1.6949223697 -1.5103920697
H 2.0841387886 -0.3289385472 -2.4990111641
H 4.4535329717 -0.9143481482 -3.0633044694
H 4.9812514323 -0.6486891037 -1.3795626934
H 4.4065908390 0.7260537446 -2.3724786350
C -0.3796066183 3.3546121795 0.9302677001
C -1.5167769034 2.8104621657 1.8000629219
H 0.5626318712 3.4077025493 1.5168936813
H -0.5874997196 4.3889281997 0.5790992731
H -1.6749939995 3.4678476888 2.6779431342
H -1.2886717535 1.7931899873 2.1781357160
H -2.4733278349 2.7466982037 1.2469807236
C -0.9826203299 3.0361045297 -1.9729652323
C -2.4964079123 3.1076560723 -1.7599157627
H -0.7370749158 2.4081339287 -2.8564645904
H -0.5574933422 4.0444166434 -2.1750527456
H -2.7652253914 3.8028941078 -0.9398774581
H -2.9152693434 2.1119153590 -1.5217090008
H -2.9869188762 3.4843218098 -2.6793212166
51
step=54 E=-2803.688292347979 Eh
Co -0.0386865987 0.1606817499 -0.1950390383
P 2.1597538385 0.2264135372 -0.1536268066
P 0.0142909862 2.3374478555 -0.5700452051
O -1.9387136201 0.1439279116 -0.3139929500
O 0.1141075383 -1.7057171007 0.1534600706
C -2.6968795794 -0.8924321824 -0.1538048894
C -2.2298220824 -2.1945372239 0.1205913177
C -0.8711247052 -2.5408932540 0.2543998361
C -4.1745511344 -0.6288835338 -0.2939208387
C -0.4693210101 -3.9647872166 0.5405760443
H -2.9748179461 -2.9928160823 0.2333506102
H -4.7865474046 -1.5210990736 -0.0711614803
H -4.4743633902 0.1981125793 0.3813181061
H -4.3972309355 -0.2939832998 -1.3287060517
H -1.3360474583 -4.6479393653 0.5866891757
H 0.2324672856 -4.3204705015 -0.2414930349
H 0.0774589514 -4.0115332417 1.5052861832
C 2.7470750887 1.9929658894 -0.1714749659
C 1.7641184504 2.8274273063 -1.0024438570
H 3.7878930124 2.0753816710 -0.5458316638
H 2.7609374216 2.3292439233 0.8874094600
H 1.9095019151 3.9183025108 -0.8542709115
H 1.8938498603 2.6298523808 -2.0881507970
C 2.8917034259 -0.5888432206 1.3332111578
C 4.4151810568 -0.6291925636 1.4801448191
H 2.4245950789 -0.0593403530 2.1924971492
H 2.4437900566 -1.6052363590 1.3303840876
H 4.6830818962 -1.0579004499 2.4665968372
H 4.8727390376 0.3792180253 1.4265535212
H 4.8921784588 -1.2649680152 0.7096925004
C 2.8022151792 -0.6041350378 -1.6881032655
C 4.2424543875 -0.3302767520 -2.1294791171
H 2.6180330459 -1.6848734801 -1.5057155015
H 2.0912571846 -0.3185436522 -2.4934456989
H 4.4624464873 -0.8995182355 -3.0549407956
H 4.9872770549 -0.6345120923 -1.3701632428
H 4.4116827174 0.7402107955 -2.3626943980
C -0.3824605162 3.3584242444 0.9353777049
C -1.5201509851 2.8125836325 1.8034350623
H 0.5588322564 3.4123574304 1.5234467813
H -0.5911422331 4.3925572355 0.5841715348
H -1.6808585920 3.4700007748 2.6808625133
H -1.2908935923 1.7958510173 2.1822983044
H -2.4757102883 2.7471878801 1.2488546053
C -0.9808163235 3.0397667834 -1.9690728630
C -2.4952549036 3.1079090593 -1.7592595110
H -0.7318344082 2.4129018370 -2.8524082743
H -0.5573360481 4.0490955518 -2.1695409893
H -2.7673664367 3.8028748855 -0.9400940548
H -2.9121506962 2.1112835290 -1.5213884624
H -2.9845863413 3.4828501153 -2.6799819177
51
step=55 E=-2803.688293440752 Eh
Co -0.0345841203 0.1657495111 -0.1895273930
P 2.1638079627 0.2353321551 -0.1457000966
P 0.0151104671 2.3428318775 -0.5631467676
O -1.9347022527 0.1464985928 -0.3076540969
O 0.1210910246 -1.7006107564 0.1586059622
C -2.6911743103 -0.8914335569 -0.1496318928
C -2.2220449277 -2.1933155554 0.1222628462
C -0.8629314762 -2.5375601487 0.2571293666
C -4.1692972792 -0.6299172261 -0.2888922278
C -0.4591667945 -3.9610174964 0.5427664061
H -2.9657930619 -2.9931160439 0.2324467418
H -4.7798194886 -1.5238832266 -0.0691364211
H -4.4703848341 0.1941518373 0.3893870203
H -4.3926443447 -0.2915502143 -1.3223921942
H -1.3243695257 -4.6465091111 0.5822424867
H 0.2486995377 -4.3132151210 -0.2353383256
H 0.0814406246 -4.0082139678 1.5109757133
C 2.7476012547 2.0030081633 -0.1602443195
C 1.7644507178 2.8361576209 -0.9922909383
H 3.7890346723 2.0879480839 -0.5322889853
H 2.7582562195 2.3383278332 0.8989749628
H 1.9076036789 3.9272389177 -0.8434210367
H 1.8961595517 2.6396073018 -2.0779603146
C 2.8951695547 -0.5809977983 1.3407765021
C 4.4186197080 -0.6226606351 1.4874815991
H 2.4285144024 -0.0515606126 2.2003511843
H 2.4464329842 -1.5970257132 1.3373740305
H 4.6863206944 -1.0520634628 2.4736981924
H 4.8770464281 0.3853832426 1.4343408591
H 4.8949595599 -1.2585928611 0.7167515780
C 2.8102266855 -0.5915718682 -1.6804145579
C 4.2504285462 -0.3134057783 -2.1194096079
H 2.6287564731 -1.6730489685 -1.4997199009
H 2.0996919126 -0.3067906478 -2.4864066375
H 4.4731842131 -0.8811668322 -3.0451122459
H 4.9948153579 -0.6164789627 -1.3591983587
H 4.4171530676 0.7577703903 -2.3512438751
C -0.3861967589 3.3631298805 0.9415493601
C -1.5252826826 2.8160515383 1.8069165291
H 0.5536641847 3.4183306215 1.5317683971
H -0.5954038859 4.3968848742 0.5895301637
H -1.6892852431 3.4737790839 2.6835429704
H -1.2955672261 1.7999810676 2.1872686485
H -2.4793452429 2.7492465486 1.2499657231
C -0.9784296443 3.0434164245 -1.9644346558
C -2.4935161077 3.1083035058 -1.7582317119
H -0.7257877091 2.4169661125 -2.8470284240
H -0.5564978407 4.0535991981 -2.1638037806
H -2.7691027689 3.8037819091 -0.9406834991
H -2.9084871241 2.1110024323 -1.5199130025
H -2.9815848156 3.4806281844 -2.6806801137
51
step=56 E=-2803.688294772704 Eh
Co -0.0296468519 0.1711786234 -0.1830342741
P 2.1686964520 0.2451971980 -0.1363448466
P 0.0160846090 2.3486005125 -0.5550541538
O -1.9297445158 0.1489624815 -0.3010818532
O 0.1290726893 -1.6950008283 0.1641230599
C -2.6844313226 -0.8906127266 -0.1453377890
C -2.2130849280 -2.1921465897 0.1243822691
C -0.8535094300 -2.5339896086 0.2603923617
C -4.1629924111 -0.6313246320 -0.2843354780
C -0.4473926928 -3.9568878875 0.5455056056
H -2.9555048377 -2.9935050869 0.2322139385
H -4.7719542107 -1.5273123008 -0.0685469311
H -4.4658823894 0.1892623276 0.3973854228
H -4.3864246269 -0.2888600916 -1.3164452468
H -1.3108759125 -4.6448869409 0.5783419346
H 0.2665808835 -4.3053603170 -0.2286263141
H 0.0870365805 -4.0044324453 1.5171671857
C 2.7483780695 2.0142008170 -0.1472950688
C 1.7649032950 2.8458603787 -0.9804341281
H 3.7905312550 2.1026853814 -0.5164513290
H 2.7551275730 2.3482367950 0.9123780001
H 1.9054144916 3.9371705564 -0.8307510224
H 1.8987043420 2.6504215667 -2.0660637475
C 2.8997899955 -0.5723354121 1.3494960569
C 4.4232582358 -0.6149996102 1.4956576329
H 2.4335141076 -0.0436556231 2.2097274444
H 2.4506577893 -1.5881951915 1.3449738228
H 4.6910776235 -1.0453921313 2.4814243641
H 4.8823971332 0.3927620057 1.4432601519
H 4.8988769922 -1.2507351493 0.7243159722
C 2.8196527785 -0.5776423272 -1.6712872336
C 4.2594809633 -0.2938878378 -2.1080748087
H 2.6419030755 -1.6600069123 -1.4921683466
H 2.1091677727 -0.2945241196 -2.4778991230
H 4.4855328476 -0.8600583693 -3.0339368467
H 5.0037416771 -0.5948361029 -1.3469262708
H 4.4225829051 0.7781051503 -2.3386866630
C -0.3906951582 3.3685608058 0.9484593565
C -1.5317012644 2.8205916066 1.8105833152
H 0.5474023782 3.4256740389 1.5412661340
H -0.6003919327 4.4017125686 0.5948988129
H -1.6996284805 3.4789302222 2.6860505725
H -1.3019116246 1.8053409218 2.1929940800
H -2.4838976042 2.7522572594 1.2506598572
C -0.9756260725 3.0468222568 -1.9591262638
C -2.4912861172 3.1087981250 -1.7564608922
H -0.7195171215 2.4201487097 -2.8405551753
H -0.5551254350 4.0576685888 -2.1580501852
H -2.7701988556 3.8054155839 -0.9410251166
H -2.9045249962 2.1110538397 -1.5170428801
H -2.9782349013 3.4779893662 -2.6807672335
51
step=57 E=-2803.688296158876 Eh
Co -0.0239977289 0.1768090305 -0.1757849527
P 2.1742432487 0.2556458013 -0.1258959190
P 0.0172142131 2.3545601548 -0.5462868364
O -1.9239278294 0.1511446123 -0.2948976040
O 0.1378584455 -1.6890823094 0.1697210476
C -2.6768059534 -0.8900611216 -0.1412784102
C -2.2031696138 -2.1910633635 0.1269795582
C -0.8430798259 -2.5302730662 0.2641441658
C -4.1557594317 -0.6331835610 -0.2807952851
C -0.4342837792 -3.9524921874 0.5487866643
H -2.9442146775 -2.9939400925 0.2330549374
H -4.7631109799 -1.5314178018 -0.0699054713
H -4.4610728853 0.1834664473 0.4045872919
H -4.3785997992 -0.2861547497 -1.3114809281
H -1.2959516085 -4.6430120879 0.5757546868
H 0.2851192083 -4.2973351917 -0.2218798069
H 0.0947270585 -4.0001954243 1.5234353992
C 2.7494207352 2.0261376583 -0.1332740364
C 1.7656070858 2.8561903379 -0.9675875722
H 3.7923589919 2.1188643815 -0.4991193766
H 2.7518541380 2.3586482849 0.9269344816
H 1.9031603758 3.9477390169 -0.8169851699
H 1.9017239565 2.6618411531 -2.0531368779
C 2.9054333373 -0.5628705255 1.3592467272
C 4.4289651235 -0.6057331092 1.5048078858
H 2.4391865003 -0.0355538934 2.2203027315
H 2.4566281647 -1.5788869062 1.3532553801
H 4.6971843474 -1.0371180874 2.4900407739
H 4.8883346331 0.4019586402 1.4532480169
H 4.9041153360 -1.2408975916 0.7326982063
C 2.8301287678 -0.5630569416 -1.6609647679
C 4.2692133257 -0.2725769136 -2.0957914441
H 2.6569983650 -1.6463880374 -1.4830598980
H 2.1192987714 -0.2825326623 -2.4681685027
H 4.4990955769 -0.8372321344 -3.0216185099
H 5.0137184914 -0.5702860257 -1.3336518372
H 4.4276055399 0.8002887008 -2.3256134848
C -0.3956797895 3.3744069297 0.9556880527
C -1.5384450604 2.8253175946 1.8146112081
H 0.5405779753 3.4342374539 1.5511020553
H -0.6063072593 4.4067471738 0.6002196877
H -1.7106595547 3.4844023979 2.6887070645
H -1.3082420763 1.8110502387 2.1992628288
H -2.4886670047 2.7547996007 1.2516223335
C -0.9726772355 3.0499968206 -1.9532234777
C -2.4887940115 3.1094418640 -1.7535818975
H -0.7136654934 2.4227612847 -2.8333876737
H -0.5535237480 4.0613639827 -2.1522423806
H -2.7705868501 3.8073704178 -0.9402605023
H -2.9005561200 2.1114045099 -1.5128340558
H -2.9749507913 3.4756102907 -2.6795229930
51
step=58 E=-2803.688297575258 Eh
Co -0.0168818100 0.1835335787 -0.1668331035
P 2.1811129770 0.2682351969 -0.1130352009
P 0.0187426069 2.3616354466 -0.5359608638
O -1.9164766223 0.1533491633 -0.2885586474
O 0.1487819866 -1.6820434529 0.1761572724
C -2.6671925065 -0.8897279812 -0.1370080677
C -2.1908247172 -2.1898796827 0.1304861744
C -0.8300773975 -2.5258555284 0.2689283335
C -4.1465562479 -0.6359222970 -0.2779042866
C -0.4179549113 -3.9471985417 0.5530849854
H -2.9301533988 -2.9945212188 0.2352443244
H -4.7519519467 -1.5368705018 -0.0731055349
H -4.4552685173 0.1760517502 0.4115268243
H -4.3682268502 -0.2836646067 -1.3070370396
H -1.2774838792 -4.6405756574 0.5743677748
H 0.3067377470 -4.2881347727 -0.2143027339
H 0.1058871414 -3.9948874776 1.5305482259
C 2.7509106301 2.0405079402 -0.1164955963
C 1.7668418900 2.8686078339 -0.9524039484
H 3.7947929257 2.1382406640 -0.4782850073
H 2.7482607814 2.3711829195 0.9443379362
H 1.9008035745 3.9604207815 -0.8006208213
H 1.9060231324 2.6754383975 -2.0377819775
C 2.9126912734 -0.5509024173 1.3714746822
C 4.4363061585 -0.5928546077 1.5166229412
H 2.4459202799 -0.0254543171 2.2333543902
H 2.4650697522 -1.5674525109 1.3637781875
H 4.7051178016 -1.0249631419 2.5013775817
H 4.8952241300 0.4150657969 1.4657870796
H 4.9114710130 -1.2271513917 0.7437926524
C 2.8429706540 -0.5459518319 -1.6480321305
C 4.2808638912 -0.2468375119 -2.0808103437
H 2.6758919204 -1.6303915700 -1.4709669870
H 2.1314510353 -0.2692894525 -2.4559433860
H 4.5157658643 -0.8100748916 -3.0062288423
H 5.0259607966 -0.5395878169 -1.3173841648
H 4.4328812035 0.8269824589 -2.3104780859
C -0.4015537561 3.3812417535 0.9641558424
C -1.5455552346 2.8299997427 1.8199426301
H 0.5327363784 3.4448410534 1.5622495939
H -0.6140736301 4.4125469412 0.6067229705
H -1.7226553187 3.4897010232 2.6925924007
H -1.3139130790 1.8169352325 2.2067042533
H -2.4936957499 2.7561119106 1.2538744058
C -0.9693023930 3.0537068076 -1.9458660073
C -2.4858382472 3.1104133107 -1.7489678417
H -0.7075959899 2.4259291402 -2.8248246799
H -0.5517544285 4.0656549943 -2.1452368934
H -2.7704298644 3.8094149219 -0.9375333369
H -2.8960257581 2.1119961060 -1.5070373635
H -2.9714560535 3.4738150101 -2.6762967131
51
step=59 E=-2803.688299011312 Eh
Co -0.0072743360 0.1925826793 -0.1550126552
P 2.1902379855 0.2850131021 -0.0960581443
P 0.0210314096 2.3710894423 -0.5228835584
O -1.9063443966 0.1560075527 -0.2814005494
O 0.1637314198 -1.6727555368 0.1844405514
C -2.6540765966 -0.8895204126 -0.1319541004
C -2.1739959365 -2.1882937487 0.1354842567
C -0.8123289110 -2.5199259324 0.2754633965
C -4.1339614854 -0.6401465486 -0.2751725538
C -0.3958086744 -3.9400844826 0.5590540807
H -2.9109321006 -2.9952861132 0.2390936657
H -4.7366336274 -1.5445316832 -0.0776742954
H -4.4474516175 0.1662251900 0.4187009731
H -4.3541009278 -0.2820352011 -1.3025788114
H -1.2525709398 -4.6370427802 0.5741851249
H 0.3346586612 -4.2763803948 -0.2048476221
H 0.1225340772 -3.9875751686 1.5394776892
C 2.7530873499 2.0595518533 -0.0947934361
C 1.7689459408 2.8850572339 -0.9331066561
H 3.7981576949 2.1630778076 -0.4514714286
H 2.7442031073 2.3880367651 0.9667413458
H 1.8982081383 3.9771847250 -0.7796819657
H 1.9125036516 2.6933633251 -2.0181746101
C 2.9223057414 -0.5342660075 1.3880765913
C 4.4460048363 -0.5740033224 1.5333221039
H 2.4542541165 -0.0110141930 2.2505689117
H 2.4767719469 -1.5517377147 1.3785865853
H 4.7154500803 -1.0062391321 2.5178383446
H 4.9036618747 0.4344824107 1.4828393824
H 4.9219021319 -1.2073123783 0.7601032373
C 2.8598412411 -0.5238110393 -1.6306852643
C 4.2959857874 -0.2131715067 -2.0608731649
H 2.7009290438 -1.6095795728 -1.4541377250
H 2.1473678330 -0.2526472428 -2.4395906884
H 4.5377801228 -0.7750024544 -2.9853706244
H 5.0419820820 -0.4986753082 -1.2956081199
H 4.4393008645 0.8617224968 -2.2911236705
C -0.4088244134 3.3897514157 0.9751366505
C -1.5530490234 2.8340148057 1.8277096870
H 0.5232585358 3.4585479094 1.5760980751
H -0.6249896528 4.4197594544 0.6161048590
H -1.7361763600 3.4937943405 2.6990212866
H -1.3179173514 1.8224746920 2.2161305301
H -2.4989202625 2.7548035168 1.2585487313
C -0.9650950520 3.0590977006 -1.9359032563
C -2.4821230296 3.1120329512 -1.7418955377
H -0.7003170441 2.4312375447 -2.8138581736
H -0.5498534758 4.0719615759 -2.1354267435
H -2.7699876748 3.8113366648 -0.9318599128
H -2.8901805873 2.1128393901 -1.4994334099
H -2.9672838550 3.4730747211 -2.6703901392
51
step=60 E=-2803.688300467179 Eh
Co 0.0041843696 0.2035208667 -0.1412228782
P 2.2009654048 0.3050848185 -0.0762758725
P 0.0241516945 2.3824364243 -0.5081694713
O -1.8942378743 0.1589842052 -0.2740536410
O 0.1819981872 -1.6617966141 0.1942358490
C -2.6381912221 -0.8895040360 -0.1265082530
C -2.1535340308 -2.1864095703 0.1415951468
C -0.7907468619 -2.5128285177 0.2833142082
C -4.1187082764 -0.6458616063 -0.2727527039
C -0.3691000184 -3.9315924979 0.5662786284
H -2.8874170369 -2.9963289993 0.2439865621
H -4.7179597532 -1.5540070387 -0.0822658403
H -4.4378976336 0.1549628682 0.4249918191
H -4.3374202841 -0.2825832422 -1.2986189117
H -1.2226233413 -4.6326281676 0.5751259651
H 0.3673279529 -4.2628127257 -0.1940657459
H 0.1436992605 -3.9787408286 1.5496530558
C 2.7559041727 2.0821001880 -0.0698519689
C 1.7719420532 2.9044779363 -0.9113454937
H 3.8022657600 2.1911573570 -0.4210334524
H 2.7403874777 2.4084718693 0.9922859720
H 1.8958071956 3.9969342902 -0.7559355051
H 1.9208919358 2.7144923908 -1.9959783375
C 2.9333644634 -0.5138246216 1.4078929018
C 4.4570895436 -0.5503633575 1.5539603286
H 2.4634015672 0.0074432093 2.2705366469
H 2.4904002667 -1.5324075250 1.3969343773
H 4.7269553883 -0.9818349004 2.5386799873
H 4.9128464689 0.4589440895 1.5031814006
H 4.9344509838 -1.1829418753 0.7810056207
C 2.8794411185 -0.4980345687 -1.6101880194
C 4.3134322644 -0.1740735596 -2.0374473650
H 2.7301089238 -1.5851690862 -1.4337164893
H 2.1659497453 -0.2334744908 -2.4203337739
H 4.5634396655 -0.7348754400 -2.9603969307
H 5.0604373666 -0.4505387114 -1.2698388846
H 4.4465287632 0.9017999271 -2.2692784505
C -0.4165401183 3.3990163838 0.9880536747
C -1.5597421041 2.8363172972 1.8375680739
H 0.5133098749 3.4736061250 1.5918051896
H -0.6379344992 4.4277014206 0.6284571690
H -1.7492839396 3.4950884337 2.7082219113
H -1.3192122452 1.8263091076 2.2264221672
H -2.5034699595 2.7506799082 1.2657592821
C -0.9602125510 3.0661733034 -1.9241133141
C -2.4778111449 3.1142673265 -1.7331016301
H -0.6918960879 2.4389155996 -2.8014057337
H -0.5479496306 4.0803270480 -2.1233005274
H -2.7694033579 3.8127215907 -0.9236507765
H -2.8831181575 2.1137958899 -1.4911506515
H -2.9624637117 3.4736954525 -2.6624719396
51
step=61 E=-2803.688301916235 Eh
Co 0.0156275379 0.2146321431 -0.1279752964
P 2.2116019065 0.3251874524 -0.0571570971
P 0.0277473082 2.3938783101 -0.4943074429
O -1.8821594826 0.1618622079 -0.2676988248
O 0.2007745603 -1.6508655749 0.2041576618
C -2.6220582996 -0.8896765930 -0.1216111280
C -2.1326165570 -2.1845328964 0.1476005163
C -0.7687099314 -2.5056695278 0.2911133339
C -4.1032417400 -0.6522392105 -0.2709605012
C -0.3420485143 -3.9230605231 0.5734914580
H -2.8632980972 -2.9975193397 0.2485056987
H -4.6989038089 -1.5637278332 -0.0852565136
H -4.4279260784 0.1444945044 0.4289892683
H -4.3210800671 -0.2860113090 -1.2959423051
H -1.1923905182 -4.6280046542 0.5769311373
H 0.3996298823 -4.2495771150 -0.1837500515
H 0.1660303117 -3.9697491180 1.5593596951
C 2.7590069314 2.1044560681 -0.0460795511
C 1.7753136653 2.9236368024 -0.8909038694
H 3.8064503124 2.2175921045 -0.3927166015
H 2.7378810307 2.4293784432 1.0163880254
H 1.8939805015 4.0163935461 -0.7335713738
H 1.9295250203 2.7353637352 -1.9750856342
C 2.9438970791 -0.4930531977 1.4274864492
C 4.4675795367 -0.5265440271 1.5749549152
H 2.4719459619 0.0270260053 2.2897770692
H 2.5031116151 -1.5125581076 1.4157147880
H 4.7374367006 -0.9565598227 2.5602993209
H 4.9214934602 0.4835278800 1.5233031581
H 4.9466736312 -1.1589998175 0.8029275861
C 2.8983731678 -0.4728043965 -1.5901811250
C 4.3302390435 -0.1363115536 -2.0147425111
H 2.7582121302 -1.5610894387 -1.4134479140
H 2.1840343802 -0.2145935730 -2.4015731810
H 4.5880047834 -0.6966821804 -2.9358385439
H 5.0781130045 -0.4038571428 -1.2447494829
H 4.4536633764 0.9402399870 -2.2487919859
C -0.4230809282 3.4072976639 1.0009611128
C -1.5642682712 2.8361672121 1.8477778946
H 0.5048532998 3.4871010874 1.6070210056
H -0.6503824446 4.4348905873 0.6420532538
H -1.7596569245 3.4928161396 2.7187077038
H -1.3174488932 1.8273767218 2.2357342326
H -2.5062689908 2.7444129565 1.2740676925
C -0.9553047050 3.0740050884 -1.9125720796
C -2.4735077195 3.1167082392 -1.7245684887
H -0.6831184573 2.4479522656 -2.7895251128
H -0.5462786915 4.0896771861 -2.1107521534
H -2.7690186194 3.8133006534 -0.9149313243
H -2.8757727012 2.1146179512 -1.4841380086
H -2.9574694861 3.4753471717 -2.6545737982
51
step=62 E=-2803.688303353636 Eh
Co 0.0254324988 0.2240703710 -0.1173305515
P 2.2207228866 0.3422488044 -0.0415539875
P 0.0313285140 2.4035328897 -0.4831360245
O -1.8718323747 0.1641502155 -0.2629596351
O 0.2171583229 -1.6416095689 0.2129255119
C -2.6080652270 -0.8900882514 -0.1180211183
C -2.1144091753 -2.1831330992 0.1522072244
C -0.7495892559 -2.4996661181 0.2975645207
C -4.0898424437 -0.6582353839 -0.2700747845
C -0.3187021415 -3.9158937928 0.5794894962
H -2.8422292537 -2.9988976037 0.2512421252
H -4.6823891469 -1.5721729489 -0.0864423920
H -4.4189320875 0.1363795215 0.4302753675
H -4.3073108441 -0.2914746331 -1.2949338761
H -1.1663619965 -4.6240717996 0.5788365584
H 0.4270870426 -4.2385960093 -0.1753314665
H 0.1858126622 -3.9620779464 1.5672336960
C 2.7620825949 2.1232289826 -0.0270399439
C 1.7784191064 2.9395402802 -0.8746207526
H 3.8101831900 2.2388343446 -0.3708851563
H 2.7371691494 2.4475893887 1.0354642404
H 1.8928779116 4.0325461398 -0.7158315238
H 1.9367086362 2.7526981160 -1.9584490898
C 2.9525700801 -0.4753610578 1.4437018737
C 4.4761513305 -0.5069431322 1.5925382137
H 2.4791854375 0.0443620472 2.3054461199
H 2.5129789891 -1.4953574907 1.4316612686
H 4.7456754547 -0.9354745253 2.5786163327
H 4.9289137036 0.5035972375 1.5398973452
H 4.9565729173 -1.1398195136 0.8216427060
C 2.9140080224 -0.4518318542 -1.5737392061
C 4.3441337952 -0.1056275280 -1.9964902367
H 2.7811735278 -1.5409310893 -1.3965708430
H 2.1990154220 -0.1987294398 -2.3861186422
H 4.6077954210 -0.6663004744 -2.9157476668
H 5.0926544250 -0.3657907515 -1.2245207809
H 4.4599316140 0.9712305646 -2.2330183101
C -0.4273727431 3.4134608898 1.0120984546
C -1.5666474576 2.8347693286 1.8565294991
H 0.4991014256 3.4969342978 1.6199105317
H -0.6596769392 4.4403436538 0.6545059577
H -1.7664504862 3.4888288696 2.7284082257
H -1.3146898144 1.8266305715 2.2428592779
H -2.5074140480 2.7388965703 1.2814878713
C -0.9508283227 3.0810278260 -1.9031869282
C -2.4695888193 3.1186314778 -1.7181298808
H -0.6747357259 2.4562592424 -2.7798392416
H -0.5447631693 4.0981464042 -2.1000462346
H -2.7688913294 3.8132018775 -0.9081550184
H -2.8689887990 2.1149599620 -1.4794990305
H -2.9526621705 3.4767581168 -2.6487678844
51
step=63 E=-2803.688305156610 Eh
Co 0.0356198474 0.2332906849 -0.1073011676
P 2.2302925214 0.3590847357 -0.0264285163
P 0.0354008065 2.4129080285 -0.4722444385
O -1.8610785017 0.1661866937 -0.2587348860
O 0.2339899835 -1.6323421328 0.2220745130
C -2.5935696749 -0.8908160626 -0.1151910043
C -2.0956537845 -2.1820459194 0.1560081764
C -0.7299954200 -2.4938124636 0.3038156378
C -4.0759160686 -0.6646482472 -0.2702480910
C -0.2947924468 -3.9088043673 0.5854344266
H -2.8206355820 -3.0006250047 0.2526114142
H -4.6653857556 -1.5807770929 -0.0876169908
H -4.4093274447 0.1286973804 0.4295315578
H -4.2929193062 -0.2985755006 -1.2954449108
H -1.1398078771 -4.6201237315 0.5814560590
H 0.4545733662 -4.2279200911 -0.1673597276
H 0.2068385926 -3.9542224210 1.5747007281
C 2.7657198826 2.1417287305 -0.0091337670
C 1.7815847623 2.9550115362 -0.8590901731
H 3.8141618444 2.2596421010 -0.3511728167
H 2.7378082335 2.4659862501 1.0532612938
H 1.8918938239 4.0482902759 -0.6991182800
H 1.9433481837 2.7695520560 -1.9426344351
C 2.9615755651 -0.4578479301 1.4594984692
C 4.4850572794 -0.4883101330 1.6094808052
H 2.4871368570 0.0617882590 2.3207368650
H 2.5226622214 -1.4781186066 1.4472919011
H 4.7541806240 -0.9156348710 2.5961982251
H 4.9371641127 0.5224921484 1.5560534474
H 4.9664156954 -1.1217624503 0.8396087812
C 2.9296130377 -0.4313530623 -1.5577629997
C 4.3579639415 -0.0761383606 -1.9793302340
H 2.8037896121 -1.5211704274 -1.3800544007
H 2.2138598966 -0.1832658938 -2.3709845688
H 4.6266795202 -0.6375933789 -2.8966503710
H 5.1072207998 -0.3291157184 -1.2055870862
H 4.4665094835 1.0008443158 -2.2186984375
C -0.4305720886 3.4190475483 1.0233438698
C -1.5681374340 2.8330432256 1.8650961763
H 0.4944868984 3.5059464006 1.6328216241
H -0.6676441093 4.4452509758 0.6670352790
H -1.7722503777 3.4843162043 2.7380918180
H -1.3116329229 1.8253637899 2.2497955638
H -2.5076471157 2.7338737586 1.2885926138
C -0.9459465995 3.0879812608 -1.8941401347
C -2.4652802432 3.1202024675 -1.7125291893
H -0.6654239515 2.4644536699 -2.7702768762
H -0.5429179767 4.1065931984 -2.0894772967
H -2.7688365272 3.8128875314 -0.9025317557
H -2.8617321325 2.1149411598 -1.4756901818
H -2.9472122863 3.4775165927 -2.6440599478
51
step=64 E=-2803.688308018700 Eh
Co 0.0502368316 0.2453914730 -0.0940570375
P 2.2440680402 0.3817622526 -0.0060157323
P 0.0413917844 2.4251688807 -0.4573525625
O -1.8455486834 0.1686150275 -0.2532442806
O 0.2573114868 -1.6197442462 0.2348577098
C -2.5730453263 -0.8921481279 -0.1122002112
C -2.0694741072 -2.1809871369 0.1601323490
C -0.7027922163 -2.4860910849 0.3121085778
C -4.0560526672 -0.6735371415 -0.2718902139
C -0.2615537263 -3.8992642952 0.5935689786
H -2.7906077877 -3.0033818402 0.2530778261
H -4.6414833592 -1.5925448856 -0.0907141577
H -4.3954876263 0.1182590999 0.4267702309
H -4.2718562217 -0.3086556019 -1.2977586462
H -1.1029582236 -4.6148179029 0.5856290231
H 0.4922773856 -4.2136469243 -0.1567492168
H 0.2366159192 -3.9433681113 1.5846565094
C 2.7713218955 2.1667081077 0.0143840024
C 1.7858855088 2.9756997719 -0.8382468477
H 3.8199553520 2.2885241851 -0.3257154503
H 2.7396518698 2.4909005138 1.0766239379
H 1.8905396711 4.0693637821 -0.6769634784
H 1.9518468193 2.7920236016 -1.9214571599
C 2.9748927061 -0.4340187072 1.4807153284
C 4.4982629807 -0.4633095596 1.6316453512
H 2.4993711358 0.0853542713 2.3415220003
H 2.5368239500 -1.4546450321 1.4681792518
H 4.7671239462 -0.8895610764 2.6189126277
H 4.9496922236 0.5477954103 1.5775916173
H 4.9804568437 -1.0972640263 0.8626707219
C 2.9515428437 -0.4039131830 -1.5361012875
C 4.3772738819 -0.0367125153 -1.9567226640
H 2.8352384518 -1.4946226378 -1.3574693096
H 2.2345720427 -0.1629527176 -2.3503598537
H 4.6524528483 -0.5996435548 -2.8712151415
H 5.1276736743 -0.2795303146 -1.1807362956
H 4.4758339212 1.0402435409 -2.2004530737
C -0.4340668755 3.4264491993 1.0386598476
C -1.5699939149 2.8318667660 1.8765364755
H 0.4889930507 3.5179734625 1.6504610196
H -0.6768768594 4.4516533090 0.6833938478
H -1.7797885865 3.4797522888 2.7507554714
H -1.3085779121 1.8247251337 2.2595682490
H -2.5076595258 2.7290747907 1.2977008378
C -0.9387809414 3.0968090400 -1.8819944983
C -2.4588479143 3.1216779720 -1.7054486729
H -0.6520147436 2.4748047883 -2.7572037370
H -0.5398919024 4.1173990765 -2.0754088510
H -2.7685115765 3.8122874288 -0.8959931693
H -2.8513113045 2.1143711925 -1.4706969910
H -2.9391355353 3.4773516583 -2.6384623264
51
step=65 E=-2803.688312729897 Eh
Co 0.0726707331 0.2625483565 -0.0751940684
P 2.2651615448 0.4144250455 0.0234777542
P 0.0505261888 2.4424720314 -0.4356123498
O -1.8215279966 0.1719220423 -0.2455753262
O 0.2918645885 -1.6013061576 0.2535771768
C -2.5419477723 -0.8942379451 -0.1089070912
C -2.0303897810 -2.1796473113 0.1650177512
C -0.6623890075 -2.4749036874 0.3240188630
C -4.0256912901 -0.6863439400 -0.2761542428
C -0.2122255282 -3.8852155185 0.6056979621
H -2.7460614333 -3.0073979367 0.2527014560
H -4.6054097378 -1.6095423558 -0.0979037014
H -4.3742718762 0.1029492075 0.4208355207
H -4.2388627851 -0.3229183376 -1.3030844619
H -1.0484287685 -4.6067772026 0.5932013779
H 0.5471517874 -4.1931608133 -0.1416959752
H 0.2819528734 -3.9269540801 1.5988830274
C 2.7801318514 2.2028870909 0.0475209642
C 1.7921249571 3.0055717881 -0.8082819600
H 3.8287910094 2.3316361984 -0.2899307784
H 2.7430839418 2.5267068965 1.1096460568
H 1.8883803971 4.0997944573 -0.6454006799
H 1.9637091260 2.8244025880 -1.8910460730
C 2.9958814935 -0.3990324849 1.5114381580
C 4.5191789848 -0.4262810843 1.6631769120
H 2.5188423881 0.1196006111 2.3718367241
H 2.5595299954 -1.4204056288 1.4983546441
H 4.7881505980 -0.8515845804 2.6508417602
H 4.9693598417 0.5853878223 1.6087632519
H 5.0024386392 -1.0602808515 0.8948619843
C 2.9845613636 -0.3645392630 -1.5045782580
C 4.4061130859 0.0201660402 -1.9241720200
H 2.8822027634 -1.4563919783 -1.3243674888
H 2.2657652220 -0.1344450637 -2.3203393973
H 4.6906591414 -0.5449551405 -2.8344275618
H 5.1582078975 -0.2073489719 -1.1450609296
H 4.4898449429 1.0968409272 -2.1745479814
C -0.4384462382 3.4372627939 1.0605536209
C -1.5721507669 2.8312369852 1.8930084375
H 0.4816587033 3.5361665427 1.6756065147
H -0.6893059485 4.4607286082 0.7058424596
H -1.7904091950 3.4749987500 2.7682535398
H -1.3040062594 1.8251842851 2.2746852302
H -2.5069340840 2.7227551014 1.3105737062
C -0.9280364697 3.1090383136 -1.8641643780
C -2.4490429118 3.1233472445 -1.6950161887
H -0.6324774140 2.4893585360 -2.7381070174
H -0.5351437304 4.1324398146 -2.0548912516
H -2.7675730471 3.8111542768 -0.8866071554
H -2.8358579895 2.1131838613 -1.4632008471
H -2.9270552219 3.4765788514 -2.6301543253
51
step=66 E=-2803.688319252820 Eh
Co 0.1027047122 0.2840178007 -0.0516034084
P 2.2931581762 0.4558978867 0.0605185991
P 0.0627336582 2.4640002783 -0.4080847773
O -1.7891696535 0.1761169627 -0.2359460859
O 0.3365944628 -1.5776754130 0.2774360517
C -2.5007493406 -0.8968293094 -0.1058025809
C -1.9793640275 -2.1779426940 0.1699515465
C -0.6099402961 -2.4605543975 0.3389734973
C -3.9851004939 -0.7022311978 -0.2835503968
C -0.1484067211 -3.8669935255 0.6215260298
H -2.6880246337 -3.0123843169 0.2510610105
H -4.5577180671 -1.6307229144 -0.1098487245
H -4.3457207657 0.0836114333 0.4111803049
H -4.1940200618 -0.3403861290 -1.3119150933
H -0.9780107163 -4.5960424305 0.6041644419
H 0.6172712241 -4.1672204562 -0.1225951126
H 0.3414102543 -3.9053089867 1.6169860674
C 2.7921179589 2.2488989342 0.0883351205
C 1.8002778981 3.0435134946 -0.7708014754
H 3.8406169543 2.3877652615 -0.2455397829
H 2.7481017201 2.5717253127 1.1504856325
H 1.8857771813 4.1383880617 -0.6061863501
H 1.9786800565 2.8654287453 -1.8530005301
C 3.0244664902 -0.3535809470 1.5502094362
C 4.5477198388 -0.3772294067 1.7024961693
H 2.5453577420 0.1638390990 2.4101470768
H 2.5911242258 -1.3762723248 1.5366287730
H 4.8174021839 -0.8017608946 2.6903139021
H 4.9956005823 0.6354944729 1.6480616174
H 5.0324872560 -1.0104153385 0.9344102955
C 3.0281396824 -0.3149408008 -1.4644912589
C 4.4439309801 0.0921469573 -1.8828162829
H 2.9436326720 -1.4079381502 -1.2818198298
H 2.3072747245 -0.0992829532 -2.2823411458
H 4.7411292712 -0.4757459727 -2.7872770853
H 5.1977868597 -0.1148687781 -1.0996113654
H 4.5084040367 1.1679946242 -2.1422344976
C -0.4430479250 3.4511639208 1.0877530039
C -1.5740970652 2.8321169516 1.9138983097
H 0.4732658147 3.5596684755 1.7067923572
H -0.7034922530 4.4722252486 0.7329304724
H -1.8027633010 3.4715521388 2.7896860412
H -1.2980137804 1.8277631948 2.2947534224
H -2.5051682669 2.7161245291 1.3269551221
C -0.9139618726 3.1240263774 -1.8413027989
C -2.4359599618 3.1249990428 -1.6812937275
H -0.6077790941 2.5077853969 -2.7140367529
H -0.5287848043 4.1509696416 -2.0286710809
H -2.7655473890 3.8089889891 -0.8740560178
H -2.8155999856 2.1112058827 -1.4534989720
H -2.9113331713 3.4755022235 -2.6188447786
51
step=67 E=-2803.688326320785 Eh
Co 0.1398166094 0.3096530266 -0.0241952453
P 2.3273932901 0.5052188436 0.1034615700
P 0.0776957025 2.4895189258 -0.3758988585
O -1.7490073218 0.1816983252 -0.2243826045
O 0.3905424794 -1.5490639044 0.3054643516
C -2.4501366801 -0.8992016068 -0.1028652574
C -1.9173355201 -2.1751957875 0.1748662859
C -0.5465374912 -2.4427850750 0.3565954127
C -3.9348197577 -0.7201466948 -0.2936880608
C -0.0716835099 -3.8443825780 0.6409218814
H -2.6176824360 -3.0173405625 0.2485208350
H -4.4990217335 -1.6549324319 -0.1262567324
H -4.3100739082 0.0610947405 0.3984215176
H -4.1380738152 -0.3596504281 -1.3236720338
H -0.8935439117 -4.5820413367 0.6190128297
H 0.7005146590 -4.1361754526 -0.0998549663
H 0.4138570113 -3.8781250551 1.6385934222
C 2.8068091602 2.3036776910 0.1351500812
C 1.8102126158 3.0888724888 -0.7273284171
H 3.8550194313 2.4555683577 -0.1938275750
H 2.7541976006 2.6244818827 1.1975674076
H 1.8827750261 4.1844055924 -0.5608618476
H 1.9964320844 2.9144742326 -1.8088480048
C 3.0598846936 -0.2983451672 1.5956860422
C 4.5831507368 -0.3162751431 1.7486392224
H 2.5778297427 0.2175075618 2.4548625006
H 2.6311718021 -1.3230432527 1.5819409890
H 4.8541090140 -0.7402351504 2.7363551613
H 5.0272942268 0.6981182256 1.6946733736
H 5.0703090095 -0.9474357588 0.9803473213
C 3.0812914063 -0.2563087805 -1.4173440430
C 4.4898029284 0.1775793802 -1.8333047395
H 3.0179605146 -1.3502247871 -1.2314184494
H 2.3587079373 -0.0581257804 -2.2380622999
H 4.8032724721 -0.3926499582 -2.7307751524
H 5.2447795534 -0.0047095056 -1.0449594597
H 4.5313729675 1.2519654762 -2.1032347411
C -0.4477555482 3.4681317002 1.1188511675
C -1.5750788361 2.8340762843 1.9383970042
H 0.4640222780 3.5884730805 1.7423669570
H -0.7195279222 4.4860622325 0.7633956285
H -1.8163417865 3.4693866899 2.8137924875
H -1.2887814998 1.8325500375 2.3195304462
H -2.5015525455 2.7073893726 1.3463397502
C -0.8972016508 3.1420618291 -1.8138740798
C -2.4201145077 3.1272058829 -1.6640827568
H -0.5792692741 2.5308596888 -2.6859592724
H -0.5213626279 4.1732530673 -1.9969246266
H -2.7622765894 3.8057300462 -0.8574346207
H -2.7911510106 2.1089848103 -1.4418875165
H -2.8928110474 3.4755424205 -2.6038337475
51
step=68 E=-2803.688331086625 Eh
Co 0.1783255784 0.3361612992 0.0029427986
P 2.3624855898 0.5556590663 0.1453955833
P 0.0932813100 2.5157514646 -0.3442278838
O -1.7072860850 0.1883293108 -0.2120802858
O 0.4456815169 -1.5194510390 0.3334050001
C -2.3976796909 -0.9005694316 -0.1000308827
C -1.8534729281 -2.1713548511 0.1792990140
C -0.4815947514 -2.4238156625 0.3742829502
C -3.8823644004 -0.7371166798 -0.3041829616
C 0.0063712135 -3.8203657097 0.6610768481
H -2.5451209424 -3.0212630510 0.2455318840
H -4.4379299080 -1.6782752650 -0.1436561333
H -4.2725151309 0.0389204028 0.3854887473
H -4.0798187289 -0.3773702852 -1.3355774965
H -0.8076314537 -4.5665531263 0.6346906212
H 0.7851246834 -4.1040259023 -0.0760407276
H 0.4873398704 -3.8492632663 1.6610593447
C 2.8218537026 2.3594583867 0.1811539439
C 1.8207718495 3.1353384349 -0.6845557107
H 3.8698864011 2.5248502805 -0.1416998186
H 2.7598886453 2.6772868268 1.2440402889
H 1.8803108080 4.2313613859 -0.5162354771
H 2.0148747384 2.9647589731 -1.7653380620
C 3.0963256444 -0.2410860902 1.6405739885
C 4.6195482065 -0.2517318833 1.7945501756
H 2.6107163616 0.2732423269 2.4986080275
H 2.6731602854 -1.2681398191 1.6271711632
H 4.8919698497 -0.6754111078 2.7819695818
H 5.0589079729 0.7648005145 1.7416030524
H 5.1099326585 -0.8798187782 1.0257400139
C 3.1362407142 -0.1966573846 -1.3704780919
C 4.5370395461 0.2646714874 -1.7826547162
H 3.0943837631 -1.2909935245 -1.1808692182
H 2.4129739379 -0.0163256426 -2.1946551779
H 4.8689233862 -0.3066325768 -2.6728063795
H 5.2915882681 0.1077459415 -0.9884569439
H 4.5555156746 1.3370683753 -2.0629003320
C -0.4517510757 3.4859798520 1.1489569043
C -1.5753731284 2.8377785107 1.9624148994
H 0.4553295121 3.6173610926 1.7770983946
H -0.7340703798 4.5008600294 0.7929381972
H -1.8289350190 3.4696535579 2.8367728543
H -1.2788258670 1.8396084997 2.3444717193
H -2.4971078270 2.6997153812 1.3654337063
C -0.8801022498 3.1608979910 -1.7863453442
C -2.4036615003 3.1299784002 -1.6460130386
H -0.5510847410 2.5556602404 -2.6584878692
H -0.5139709862 4.1964086919 -1.9648125674
H -2.7578285476 3.8019360534 -0.8390261609
H -2.7656664645 2.1071348921 -1.4301794211
H -2.8742029686 3.4770771206 -2.5873133921
51
step=69 E=-2803.688331380947 Eh
Co 0.2201934419 0.3659308103 0.0314219207
P 2.4003144403 0.6107657350 0.1887311842
P 0.1104420130 2.5450256942 -0.3114167013
O -1.6618449281 0.1967108935 -0.1985575459
O 0.5057066138 -1.4864209864 0.3630016153
C -2.3402244899 -0.9007817828 -0.0968109008
C -1.7835727653 -2.1656827485 0.1843475270
C -0.4108029799 -2.4018537110 0.3934708682
C -3.8246350382 -0.7544430999 -0.3151522726
C 0.0909659881 -3.7928091622 0.6835123706
H -2.4656152232 -3.0238879725 0.2426838192
H -4.3704908461 -1.7025402944 -0.1622826753
H -4.2308776237 0.0153613281 0.3721851609
H -4.0161877564 -0.3949120724 -1.3477568245
H -0.7146152005 -4.5479280080 0.6531654519
H 0.8762748806 -4.0683010841 -0.0498012469
H 0.5674305577 -3.8160736943 1.6857374390
C 2.8378223544 2.4200772098 0.2295295087
C 1.8327069120 3.1862176352 -0.6399609617
H 3.8858523589 2.5994790315 -0.0856250258
H 2.7652118795 2.7340009197 1.2929818320
H 1.8781730876 4.2825695237 -0.4695051951
H 2.0352500796 3.0199831914 -1.7199075640
C 3.1351384927 -0.1784154113 1.6875167745
C 4.6582400646 -0.1800674986 1.8434680545
H 2.6449429631 0.3343021370 2.5438701450
H 2.7185535395 -1.2081854762 1.6747571781
H 4.9320660069 -0.6039513991 2.8303900593
H 5.0916639081 0.8390734826 1.7925238249
H 5.1531141029 -0.8038039295 1.0739284924
C 3.1958287125 -0.1314736766 -1.3212723838
C 4.5879366046 0.3598960959 -1.7276294128
H 3.1772837508 -1.2256971377 -1.1274119114
H 2.4729846640 0.0296359099 -2.1497095344
H 4.9412155952 -0.2107300530 -2.6099707482
H 5.3402883397 0.2296875705 -0.9264725895
H 4.5819370868 1.4297717593 -2.0179567452
C -0.4554700181 3.5059385811 1.1798141023
C -1.5747257489 2.8419725086 1.9866949248
H 0.4463600465 3.6482432491 1.8131577238
H -0.7488683196 4.5176679322 0.8238111781
H -1.8419696038 3.4702357421 2.8595184489
H -1.2662006163 1.8480524308 2.3702337431
H -2.4909555518 2.6905669114 1.3844239224
C -0.8617031152 3.1826072315 -1.7573233836
C -2.3856758435 3.1343741919 -1.6261761582
H -0.5214284514 2.5843017459 -2.6299258057
H -0.5062285706 4.2227406465 -1.9306170579
H -2.7518783286 3.7982680300 -0.8178827090
H -2.7376715561 2.1065093844 -1.4176835924
H -2.8544932245 3.4810399935 -2.5684772856
51
step=70 E=-2803.688332248108 Eh
Co 0.2399526832 0.3799041163 0.0414810210
P 2.4182719668 0.6356360923 0.2034632170
P 0.1195602974 2.5587966991 -0.2999822374
O -1.6406486719 0.2012118803 -0.1940387133
O 0.5334534665 -1.4710681561 0.3749398540
C -2.3134057662 -0.9001413355 -0.0972196726
C -1.7512591555 -2.1622345138 0.1853047400
C -0.3782641036 -2.3911217250 0.4013085948
C -3.7974995056 -0.7617639917 -0.3225934772
C 0.1292425584 -3.7794765065 0.6939692744
H -2.4287480447 -3.0242385300 0.2400309966
H -4.3390495934 -1.7126387724 -0.1717066500
H -4.2110821796 0.0063339295 0.3622549624
H -3.9862125220 -0.4039538651 -1.3563321940
H -0.6731342409 -4.5380394398 0.6649524170
H 0.9155159022 -4.0531898144 -0.0390485034
H 0.6061024954 -3.7989033255 1.6960540041
C 2.8464760621 2.4471057600 0.2463872474
C 1.8398407119 3.2091289183 -0.6246186804
H 3.8946952406 2.6318527936 -0.0649698576
H 2.7693231892 2.7590661978 1.3101237658
H 1.8794744988 4.3055487005 -0.4532456183
H 2.0453788423 3.0447035812 -1.7042807618
C 3.1533373279 -0.1493734731 1.7046626003
C 4.6762328322 -0.1455828114 1.8630381375
H 2.6601159074 0.3627976396 2.5596043536
H 2.7404224620 -1.1806138337 1.6925379492
H 4.9502462131 -0.5707078076 2.8493640665
H 5.1060407588 0.8751896877 1.8149360315
H 5.1745292768 -0.7657122827 1.0927550599
C 3.2235619779 -0.1033073848 -1.3032354158
C 4.6117452960 0.4016051754 -1.7058646656
H 3.2154742403 -1.1970899887 -1.1063801720
H 2.5016871178 0.0487715348 -2.1341505067
H 4.9763829832 -0.1678299379 -2.5843647343
H 5.3612582427 0.2833815632 -0.9004679088
H 4.5952993654 1.4702048557 -2.0005095822
C -0.4540519620 3.5154298897 1.1908918631
C -1.5719787605 2.8454752987 1.9949627492
H 0.4457569832 3.6600920894 1.8266041485
H -0.7507848114 4.5265290792 0.8359951077
H -1.8444512000 3.4724244304 2.8670876779
H -1.2587925086 1.8534250212 2.3791338300
H -2.4859522458 2.6888257356 1.3906072557
C -0.8531887526 3.1935295856 -1.7463893022
C -2.3771379132 3.1377243214 -1.6174458894
H -0.5089827694 2.5986597197 -2.6197872171
H -0.5026145110 4.2357191114 -1.9173602951
H -2.7473581287 3.7969741519 -0.8072045766
H -2.7244082435 2.1074835543 -1.4128601492
H -2.8462674707 3.4853282798 -2.5592020787
51
step=71 E=-2803.688336289706 Eh
Co 0.2363809255 0.3778642600 0.0363503120
P 2.4154108910 0.6302562723 0.1946900313
P 0.1192101391 2.5570930624 -0.3060089732
O -1.6449421845 0.2011391156 -0.1962353042
O 0.5284527979 -1.4737924716 0.3704895405
C -2.3185680061 -0.8994918542 -0.0985284914
C -1.7574248477 -2.1619474725 0.1842237033
C -0.3844536159 -2.3924113694 0.3987535515
C -3.8027535563 -0.7599894528 -0.3226068863
C 0.1213602242 -3.7813009163 0.6920199986
H -2.4356675107 -3.0232929600 0.2396860816
H -4.3450785895 -1.7101244586 -0.1699166106
H -4.2148764395 0.0093030559 0.3618051055
H -3.9923697841 -0.4031257233 -1.3565032195
H -0.6822487403 -4.5386311779 0.6655117212
H 0.9057949504 -4.0572268787 -0.0421521837
H 0.6001785053 -3.8002582865 1.6931821615
C 2.8462755270 2.4409523950 0.2380669827
C 1.8408849572 3.2046239277 -0.6326314032
H 3.8950387655 2.6231344407 -0.0729883250
H 2.7698318696 2.7527612343 1.3018686801
H 1.8823360203 4.3009173812 -0.4609243739
H 2.0450475388 3.0400260041 -1.7125026263
C 3.1496951192 -0.1555194879 1.6960527412
C 4.6724566456 -0.1514178069 1.8559039549
H 2.6558368429 0.3567984248 2.5505708044
H 2.7366402641 -1.1866588493 1.6838531372
H 4.9456199167 -0.5782192990 2.8417467237
H 5.1021628297 0.8695098196 1.8102334120
H 5.1718957164 -0.7700255746 1.0851222295
C 3.2186297832 -0.1105845528 -1.3121482926
C 4.6079846835 0.3919546462 -1.7136125508
H 3.2086525677 -1.2042293436 -1.1148635496
H 2.4972198673 0.0430145099 -2.1431462353
H 4.9724951943 -0.1762882637 -2.5929279337
H 5.3561696398 0.2706043134 -0.9075628594
H 4.5942607396 1.4611593092 -2.0062172849
C -0.4513706948 3.5143440645 1.1854572659
C -1.5709625709 2.8462356866 1.9891308032
H 0.4489133443 3.6550479137 1.8213893230
H -0.7452473299 4.5267173586 0.8319560374
H -1.8418352776 3.4732842307 2.8616935225
H -1.2597002441 1.8534202463 2.3726116531
H -2.4853929292 2.6919163104 1.3849195185
C -0.8546101941 3.1934715859 -1.7508259094
C -2.3784221788 3.1386158659 -1.6193649247
H -0.5119745433 2.5987013406 -2.6248876781
H -0.5035705520 4.2355235958 -1.9215560618
H -2.7465914283 3.7972734519 -0.8077417624
H -2.7260577687 2.1084823275 -1.4149026072
H -2.8487678610 3.4873617670 -2.5600499073
51
step=72 E=-2803.688340117815 Eh
Co 0.2260014977 0.3710079359 0.0273957222
P 2.4065466074 0.6160878459 0.1805066282
P 0.1162268804 2.5505721488 -0.3164232358
O -1.6564298729 0.1994640009 -0.2005217106
O 0.5140351145 -1.4816714634 0.3620343048
C -2.3328247425 -0.8990975929 -0.1000023601
C -1.7745476852 -2.1628889633 0.1826512529
C -0.4017107601 -2.3973995905 0.3933672521
C -3.8172351051 -0.7557343222 -0.3203533997
C 0.1005989638 -3.7877171433 0.6860914909
H -2.4551292545 -3.0222744608 0.2397917900
H -4.3618765450 -1.7040530658 -0.1646982169
H -4.2252117754 0.0156837876 0.3641775071
H -4.0087235742 -0.3996436479 -1.3541614929
H -0.7053978435 -4.5425806118 0.6622753648
H 0.8823124322 -4.0665056095 -0.0498941362
H 0.5819942997 -3.8074681849 1.6860166300
C 2.8434133721 2.4252211261 0.2239511789
C 1.8398743884 3.1918535359 -0.6462290890
H 3.8925772544 2.6028470537 -0.0884640600
H 2.7693014649 2.7378678899 1.2876104070
H 1.8852632984 4.2879997861 -0.4745275085
H 2.0416365321 3.0263579909 -1.7263817952
C 3.1398056881 -0.1727462337 1.6805039602
C 4.6624663607 -0.1707315144 1.8403924517
H 2.6465640963 0.3394883665 2.5354538042
H 2.7250802496 -1.2031706619 1.6675244839
H 4.9347802383 -0.5997217006 2.8255478402
H 5.0935887426 0.8497391922 1.7969846396
H 5.1616168298 -0.7886014870 1.0688367510
C 3.2039365003 -0.1273817649 -1.3278939687
C 4.5959946770 0.3675249351 -1.7301006290
H 3.1884064643 -1.2210827771 -1.1313632617
H 2.4822849124 0.0309897069 -2.1577754244
H 4.9552448566 -0.2005479789 -2.6116578924
H 5.3446440784 0.2385393488 -0.9253792689
H 4.5887345456 1.4377398888 -2.0191918064
C -0.4486892412 3.5096544499 1.1760186724
C -1.5717995089 2.8463477847 1.9788442734
H 0.4523798897 3.6444023555 1.8120979835
H -0.7372873511 4.5239419568 0.8237033475
H -1.8394524128 3.4737241164 2.8522094695
H -1.2657183289 1.8515380958 2.3612378596
H -2.4870547831 2.6977729007 1.3745252945
C -0.8580859546 3.1892210419 -1.7601028362
C -2.3817555695 3.1380774153 -1.6257537592
H -0.5179712846 2.5925092559 -2.6338180756
H -0.5047541724 4.2302645875 -1.9320122309
H -2.7467686870 3.7986433870 -0.8142792654
H -2.7313947251 2.1090774459 -1.4191149331
H -2.8529904610 3.4866969382 -2.5660381689
51
step=73 E=-2803.688343015377 Eh
Co 0.2111490550 0.3587243722 0.0127147024
P 2.3936462881 0.5930457705 0.1581958726
P 0.1116529228 2.5385280144 -0.3328345174
O -1.6728210909 0.1961211280 -0.2082440338
O 0.4912569658 -1.4948681017 0.3488488527
C -2.3542430666 -0.8989396584 -0.1041229283
C -1.8012322234 -2.1651272677 0.1783045021
C -0.4288819848 -2.4061401073 0.3844270963
C -3.8386364956 -0.7486073924 -0.3200746615
C 0.0677641414 -3.7985634368 0.6767859505
H -2.4858345217 -3.0210922260 0.2385782955
H -4.3877817084 -1.6933214660 -0.1584675900
H -4.2401374584 0.0280653189 0.3623005071
H -4.0316101018 -0.3961691494 -1.3548769197
H -0.7423993108 -4.5491164295 0.6593679130
H 0.8433462684 -4.0829300512 -0.0635600552
H 0.5553378570 -3.8189861037 1.6736843083
C 2.8398668395 2.3998994492 0.1988921089
C 1.8373670921 3.1705929846 -0.6689696018
H 3.8888339502 2.5718964345 -0.1173806048
H 2.7708980203 2.7141675253 1.2623945066
H 1.8888720707 4.2666370336 -0.4983532798
H 2.0346151438 3.0030024028 -1.7496099639
C 3.1269991572 -0.1982985933 1.6569516765
C 4.6496878866 -0.1989743678 1.8165534432
H 2.6351447140 0.3141581761 2.5125681465
H 2.7103634248 -1.2279396660 1.6435446464
H 4.9215715531 -0.6301433700 2.8008967399
H 5.0822978067 0.8209128848 1.7751453812
H 5.1478381470 -0.8162582269 1.0439300210
C 3.1814720153 -0.1556369821 -1.3524100268
C 4.5772846498 0.3262602318 -1.7572448837
H 3.1559987196 -1.2493559882 -1.1569003004
H 2.4596545617 0.0103319927 -2.1806816374
H 4.9276612216 -0.2422486127 -2.6420707904
H 5.3265674512 0.1860395649 -0.9552531758
H 4.5806500837 1.3976170505 -2.0420951119
C -0.4430150443 3.5014683304 1.1609794063
C -1.5699993780 2.8468334845 1.9653510284
H 0.4601597197 3.6290145881 1.7955317180
H -0.7242555145 4.5180632013 0.8092931508
H -1.8318505737 3.4763266248 2.8389665566
H -1.2711115603 1.8497837636 2.3475726758
H -2.4871564678 2.7052701531 1.3622711812
C -0.8641070679 3.1808287594 -1.7740642170
C -2.3875361777 3.1365235109 -1.6352503966
H -0.5289513777 2.5816152022 -2.6479852590
H -0.5066707903 4.2201324847 -1.9478870416
H -2.7473016321 3.7998072761 -0.8236513965
H -2.7410221173 2.1093645536 -1.4262482125
H -2.8600708208 3.4860431773 -2.5745669084
51
step=74 E=-2803.688343977627 Eh
Co 0.1953996597 0.3464877759 0.0001296971
P 2.3797549610 0.5700655077 0.1393952241
P 0.1061363265 2.5264890961 -0.3471720224
O -1.6898972468 0.1928454732 -0.2144893442
O 0.4677223089 -1.5080580749 0.3360998942
C -2.3765074867 -0.8985508224 -0.1061419565
C -1.8287383440 -2.1672143990 0.1755631692
C -0.4568070625 -2.4149089595 0.3759609151
C -3.8609670744 -0.7409173020 -0.3165227307
C 0.0343723956 -3.8095319317 0.6668791031
H -2.5175348597 -3.0195811043 0.2393667122
H -4.4144458289 -1.6822823194 -0.1502335267
H -4.2555846472 0.0397718172 0.3652549762
H -4.0560525161 -0.3903554066 -1.3515746771
H -0.7794185143 -4.5562200812 0.6527470418
H 0.8058108870 -4.0977124992 -0.0762986547
H 0.5255422711 -3.8319767609 1.6619664102
C 2.8348284294 2.3747675167 0.1783310319
C 1.8338505290 3.1496318877 -0.6877970091
H 3.8836301630 2.5418555585 -0.1411557074
H 2.7700307209 2.6903968512 1.2416706370
H 1.8910733656 4.2454855918 -0.5177946057
H 2.0277871857 2.9803973340 -1.7687590367
C 3.1131268730 -0.2250843992 1.6357363541
C 4.6359522761 -0.2289037544 1.7934360354
H 2.6232303436 0.2869248971 2.4927399195
H 2.6942739368 -1.2538197850 1.6213044381
H 4.9080183801 -0.6617887339 2.7769857431
H 5.0703409695 0.7903124145 1.7529397176
H 5.1322401712 -0.8461980446 1.0196583993
C 3.1581067943 -0.1820245721 -1.3741364943
C 4.5575639084 0.2868448032 -1.7821117024
H 3.1227301351 -1.2759212648 -1.1809979768
H 2.4356757930 -0.0077200964 -2.2002064599
H 4.8974213901 -0.2818048550 -2.6709189855
H 5.3090548004 0.1345829282 -0.9841340437
H 4.5711869021 1.3594162685 -2.0619932867
C -0.4400018709 3.4934626817 1.1471614480
C -1.5715410557 2.8474142287 1.9519679830
H 0.4645701643 3.6147579614 1.7809278648
H -0.7139461061 4.5120230194 0.7952591011
H -1.8283003088 3.4786545277 2.8258441544
H -1.2806114516 1.8478281156 2.3338710996
H -2.4900532321 2.7133518356 1.3492626339
C -0.8697509645 3.1721138807 -1.7869952788
C -2.3930741609 3.1337945796 -1.6456744491
H -0.5381701057 2.5707040544 -2.6607731237
H -0.5084974760 4.2098561382 -1.9621557978
H -2.7490939307 3.8004803365 -0.8352069853
H -2.7502495047 2.1085244766 -1.4336786798
H -2.8659110728 3.4830215222 -2.5849739480
51
step=75 E=-2803.688343565781 Eh
Co 0.1802726632 0.3331693779 -0.0143970744
P 2.3661421773 0.5457980661 0.1175638053
P 0.1009025830 2.5132641968 -0.3638505993
O -1.7064727417 0.1894019758 -0.2222372666
O 0.4437073657 -1.5222883933 0.3222317889
C -2.3986492550 -0.8981191369 -0.1101366342
C -1.8567597524 -2.1694086134 0.1710694483
C -0.4854317474 -2.4242289419 0.3665979544
C -3.8829054023 -0.7326578249 -0.3158068607
C -0.0004625148 -3.8211337758 0.6568991655
H -2.5498996468 -3.0179362301 0.2387514173
H -4.4412041490 -1.6701736690 -0.1439785971
H -4.2706310238 0.0530973014 0.3640478011
H -4.0795285094 -0.3852914244 -1.3516718560
H -0.8185823754 -4.5631731366 0.6490784466
H 0.7645155036 -4.1150319550 -0.0907366595
H 0.4969448493 -3.8447444526 1.6488354215
C 2.8305369765 2.3482107593 0.1529509232
C 1.8305357895 3.1273285611 -0.7106312045
H 3.8790675914 2.5101576749 -0.1700686848
H 2.7707056498 2.6651731827 1.2162108567
H 1.8938641853 4.2230258139 -0.5418557474
H 2.0203906413 2.9560284418 -1.7919887865
C 3.1003504510 -0.2513810988 1.6125192723
C 4.6232938023 -0.2566853426 1.7694456092
H 2.6117131937 0.2605443965 2.4702910574
H 2.6803035378 -1.2796293911 1.5978118031
H 4.8955356367 -0.6907575836 2.7524114622
H 5.0582286366 0.7622965770 1.7298635494
H 5.1187111232 -0.8734311098 0.9947166082
C 3.1345314678 -0.2113212799 -1.3984340470
C 4.5375356830 0.2438980408 -1.8094042246
H 3.0883041105 -1.3051465225 -1.2070612849
H 2.4120065473 -0.0284484187 -2.2226264988
H 4.8679188377 -0.3247431889 -2.7017917803
H 5.2900440378 0.0800598703 -1.0149050641
H 4.5621489305 1.3173943242 -2.0849594753
C -0.4349498098 3.4850339212 1.1310804892
C -1.5694983322 2.8483758504 1.9390626182
H 0.4719010420 3.6001957135 1.7627476374
H -0.7019149114 4.5053950152 0.7789593118
H -1.8196555608 3.4824430898 2.8127856605
H -1.2853111386 1.8469996707 2.3212313137
H -2.4903034772 2.7204540929 1.3385155765
C -0.8762902690 3.1625634517 -1.8009912872
C -2.3993429013 3.1316922928 -1.6552246521
H -0.5503402534 2.5592617363 -2.6755949465
H -0.5105808124 4.1984538284 -1.9779370883
H -2.7498157431 3.8010043666 -0.8445027944
H -2.7606751041 2.1083595449 -1.4411172584
H -2.8732980629 3.4821926806 -2.5934866284
51
step=76 E=-2803.688342781275 Eh
Co 0.1726868338 0.3268287752 -0.0208239287
P 2.3591234294 0.5342196564 0.1079757890
P 0.0980209069 2.5069744641 -0.3714250431
O -1.7147958264 0.1879562606 -0.2254170125
O 0.4319420088 -1.5292844766 0.3153405908
C -2.4096994192 -0.8976235068 -0.1111279608
C -1.8706202817 -2.1702011290 0.1695882215
C -0.4995200561 -2.4286560173 0.3620914402
C -3.8939213736 -0.7282979649 -0.3137933269
C -0.0176917756 -3.8267956895 0.6516431132
H -2.5659003064 -3.0168025295 0.2394096580
H -4.4544676400 -1.6639892624 -0.1393378977
H -4.2779955041 0.0596226624 0.3656144700
H -4.0918439977 -0.3820658404 -1.3498008326
H -0.8378611605 -4.5665925540 0.6460811980
H 0.7445779948 -4.1230647657 -0.0978256748
H 0.4821455161 -3.8514727813 1.6423270375
C 2.8278749917 2.3355266800 0.1419979993
C 1.8286407460 3.1168068865 -0.7205384041
H 3.8764055553 2.4948883884 -0.1822987194
H 2.7701088911 2.6529661645 1.2052447935
H 1.8947791745 4.2123949211 -0.5521590608
H 2.0169868021 2.9447789151 -1.8020472224
C 3.0937231748 -0.2641845833 1.6020764354
C 4.6167247758 -0.2698461458 1.7585978872
H 2.6055812770 0.2475609479 2.4602504663
H 2.6732306515 -1.2922428689 1.5871499646
H 4.8891237739 -0.7039378631 2.7414995285
H 5.0516530783 0.7491208541 1.7189001281
H 5.1118596141 -0.8865418542 0.9836711539
C 3.1226521451 -0.2247707417 -1.4094893420
C 4.5273878939 0.2237910571 -1.8217171657
H 3.0709692790 -1.3186088451 -1.2196071224
H 2.4001334968 -0.0370828084 -2.2326384551
H 4.8528483204 -0.3443763413 -2.7162219731
H 5.2806114559 0.0536721991 -1.0292257366
H 4.5575001686 1.2978411790 -2.0945728152
C -0.4335182177 3.4810807690 1.1234550877
C -1.5691522455 2.8483074699 1.9330224655
H 0.4743042120 3.5937352884 1.7541959847
H -0.6976121281 4.5021229025 0.7711347981
H -1.8162905649 3.4835720020 2.8067182112
H -1.2875872325 1.8461903767 2.3152102888
H -2.4910542229 2.7228826506 1.3336255163
C -0.8794468096 3.1581815658 -1.8073897494
C -2.4024406295 3.1305927341 -1.6600593697
H -0.5558575271 2.5544415565 -2.6825706824
H -0.5117005648 4.1933099218 -1.9846660764
H -2.7506394440 3.8009600784 -0.8492386884
H -2.7657313140 2.1081113811 -1.4451783540
H -2.8765570467 3.4817145595 -2.5979984304
51
step=77 E=-2803.688342489387 Eh
Co 0.1703142597 0.3246485409 -0.0228567445
P 2.3567643210 0.5304278566 0.1050815378
P 0.0970540139 2.5048108621 -0.3739279581
O -1.7174939642 0.1875545234 -0.2263058301
O 0.4281802330 -1.5318528008 0.3127794818
C -2.4133180571 -0.8973647175 -0.1111105406
C -1.8751893018 -2.1704123390 0.1692291841
C -0.5041213254 -2.4302302285 0.3603949092
C -3.8975728466 -0.7266830453 -0.3123288038
C -0.0234882516 -3.8289113345 0.6493896305
H -2.5711759091 -3.0163565810 0.2398773387
H -4.4588507886 -1.6617513629 -0.1368602950
H -4.2801960778 0.0619169047 0.3671141267
H -4.0962925600 -0.3807361515 -1.3482820910
H -0.8444299711 -4.5678594838 0.6446132292
H 0.7377039046 -4.1259701944 -0.1008652117
H 0.4773431792 -3.8541654549 1.6395558405
C 2.8268728575 2.3313599802 0.1387532667
C 1.8280054100 3.1134097633 -0.7234950576
H 3.8755035792 2.4897278139 -0.1856976837
H 2.7696410840 2.6488401282 1.2020272451
H 1.8950172485 4.2089582767 -0.5552009352
H 2.0160818235 2.9412862193 -1.8050443064
C 3.0916136033 -0.2684030005 1.5988625395
C 4.6146190689 -0.2736856513 1.7554700125
H 2.6034130940 0.2431701139 2.4571192359
H 2.6712232895 -1.2964956902 1.5838179458
H 4.8870688828 -0.7074811007 2.7384785340
H 5.0491595349 0.7454296069 1.7155582186
H 5.1099703344 -0.8903034250 0.9806285940
C 3.1186373990 -0.2289556166 -1.4130402036
C 4.5239743480 0.2173586503 -1.8256203775
H 3.0649527249 -1.3228323220 -1.2240094919
H 2.3961510016 -0.0392012107 -2.2357597341
H 4.8477300687 -0.3504016256 -2.7210123664
H 5.2775053923 0.0448503222 -1.0339433669
H 4.5560694073 1.2916474246 -2.0973231032
C -0.4333909105 3.4797514221 1.1207867115
C -1.5692661357 2.8482423433 1.9310794029
H 0.4747265697 3.5915261437 1.7512791126
H -0.6965734013 4.5009953686 0.7684038146
H -1.8151103177 3.4838768332 2.8048665620
H -1.2884309032 1.8458789401 2.3131068657
H -2.4916800151 2.7236913647 1.3322865210
C -0.8803017315 3.1566016604 -1.8096232161
C -2.4033147408 3.1301108127 -1.6619796442
H -0.5574343193 2.5528993796 -2.6851027578
H -0.5118459618 4.1914937991 -1.9868694841
H -2.7508739955 3.8008476288 -0.8512003007
H -2.7672232342 2.1079003942 -1.4468135776
H -2.8772890975 3.4812856804 -2.5999584701
51
step=78 E=-2803.688342475990 Eh
Co 0.1700705177 0.3242968850 -0.0232395584
P 2.3564417180 0.5298586709 0.1046756877
P 0.0969733336 2.5044679064 -0.3743260522
O -1.7178593084 0.1875430097 -0.2263212234
O 0.4277787764 -1.5323629347 0.3120994011
C -2.4138148506 -0.8972767205 -0.1108726449
C -1.8757981066 -2.1704212235 0.1692240065
C -0.5046945217 -2.4305162109 0.3599004683
C -3.8981217035 -0.7263650656 -0.3115076719
C -0.0242940530 -3.8293620952 0.6485526009
H -2.5719041294 -3.0162528485 0.2400509934
H -4.4594884475 -1.6613192594 -0.1357018851
H -4.2803245345 0.0623535455 0.3680381354
H -4.0972439194 -0.3804658912 -1.3473975508
H -0.8454240063 -4.5681043043 0.6440444636
H 0.7365078132 -4.1265399425 -0.1020550961
H 0.4769616392 -3.8548395990 1.6384991251
C 2.8267335000 2.3307193850 0.1383965647
C 1.8279711423 3.1129313414 -0.7237880323
H 3.8754286230 2.4888405050 -0.1859706449
H 2.7695520158 2.6481306253 1.2016961456
H 1.8951126896 4.2084697207 -0.5554678871
H 2.0160407840 2.9408933806 -1.8053574195
C 3.0913228974 -0.2690926675 1.5983997284
C 4.6143094630 -0.2740705926 1.7552389837
H 2.6029380687 0.2423569440 2.4566323189
H 2.6710866179 -1.2972428617 1.5832529864
H 4.8866947882 -0.7077425362 2.7383181575
H 5.0486177912 0.7451441726 1.7153236834
H 5.1099156498 -0.8906056123 0.9804973156
C 3.1179340025 -0.2294575478 -1.4136825800
C 4.5234304303 0.2163528605 -1.8262674042
H 3.0637474252 -1.3233631670 -1.2250106275
H 2.3954703700 -0.0390270598 -2.2362722567
H 4.8467654586 -0.3511481685 -2.7219788019
H 5.2770432278 0.0430751772 -1.0348227210
H 4.5560577214 1.2907468425 -2.0974970598
C -0.4335065674 3.4795270479 1.1202920486
C -1.5694579112 2.8481747862 1.9306263719
H 0.4746118571 3.5910471768 1.7508345233
H -0.6964899977 4.5008201026 0.7679254600
H -1.8150006426 3.4837822884 2.8045203408
H -1.2887569785 1.8457064210 2.3124959582
H -2.4919792750 2.7239250676 1.3319451611
C -0.8802146808 3.1563129440 -1.8101290063
C -2.4032620125 3.1299049730 -1.6626681075
H -0.5572958683 2.5526671444 -2.6856301611
H -0.5116676567 4.1911945415 -1.9872625453
H -2.7508883000 3.8007330618 -0.8520007526
H -2.7672302299 2.1077226542 -1.4474090477
H -2.8770654269 3.4809361977 -2.6007838010
