57
1 2 Before single point calculation
Co 0.000000000 0.000000000 0.000000000
P 2.159432326 0.000000000 0.049528265
P 0.000000000 2.180000108 -0.050000003
O -1.880000077 0.000000000 0.050000003
O 0.000000000 -1.880000077 -0.050000003
C -2.749999990 -0.850000067 0.050000003
C -2.000000039 -2.000000039 0.000000000
C -0.850000067 -2.749999990 -0.050000003
C -4.199999930 -0.649999962 0.100000005
C -0.649999962 -4.199999930 -0.100000005
H -2.250000107 -2.250000107 1.049999982
H -4.650000102 -1.200000124 0.899999967
H -4.500000213 0.400000020 0.250000005
H -4.700000066 -1.000000019 -0.825000022
H -1.200000124 -4.650000102 -0.899999967
H 0.400000020 -4.500000213 -0.250000005
H -1.000000019 -4.700000066 0.825000022
C 2.050000002 1.549999992 0.850000067
C 1.250000087 2.250000107 -0.250000005
H 3.050000021 1.899999986 1.169999944
H 1.520000065 1.389999959 1.799999934
H 1.790000042 3.140000056 0.100000005
H 1.269999997 2.130000145 -1.340000122
C 3.619999903 -0.850000067 0.850000067
C 4.920000206 -1.039999965 0.060000005
H 3.849999936 -0.430000011 1.840000131
H 3.300000089 -1.899999986 1.019999992
H 5.720000121 -1.590000064 0.579999963
H 5.269999948 -0.060000005 -0.300000031
H 4.760000425 -1.610000099 -0.860000022
C 2.900000132 -1.100000072 -1.299999924
C 4.249999893 -0.699999988 -1.930000040
H 3.020000094 -2.189999999 -1.169999944
H 2.140000036 -0.890000012 -2.069999911
H 4.760000425 -1.490000011 -2.490000030
H 4.930000098 -0.380000016 -1.129999999
H 4.120000039 0.160000002 -2.599999848
C -0.850000067 3.599999868 0.899999967
C -2.050000002 4.249999893 0.250000005
C -0.200000010 4.449999745 2.000000039
H -1.200000124 3.000000058 1.759999989
H -2.560000029 4.900000423 0.970000029
H -2.760000134 3.499999941 -0.129999996
H -1.749999971 4.869999738 -0.610000017
H 0.680000016 4.000000077 2.469999995
H -0.899999967 4.610000031 2.829999881
H 0.139999998 5.429999729 1.619999991
C -1.150000035 2.900000132 -1.299999924
C -2.539999994 3.400000268 -1.749999971
C -0.519999982 3.250000126 -2.630000280
H -1.159999927 1.799999934 -1.240000069
H -2.539999994 4.500000213 -1.860000041
H -3.270000162 3.099999984 -0.980000047
H -2.849999916 2.970000131 -2.710000171
H 0.509999996 2.869999952 -2.640000172
H -1.100000072 2.880000096 -3.490000050
H -0.500000010 4.349999819 -2.740000098
