45
1 2 Before single point calculation
Co 0.000000000 0.000000000 0.000000000
P 2.159432326 0.000000000 0.049528265
P 0.000000000 2.180000108 -0.050000003
O -1.880000077 0.000000000 0.050000003
O 0.000000000 -1.880000077 -0.050000003
C -2.749999990 -0.850000067 0.050000003
C -2.000000039 -2.000000039 0.000000000
C -0.850000067 -2.749999990 -0.050000003
C -4.199999930 -0.649999962 0.100000005
C -0.649999962 -4.199999930 -0.100000005
H -2.250000107 -2.250000107 1.049999982
H -4.650000102 -1.200000124 0.899999967
H -4.500000213 0.400000020 0.250000005
H -4.700000066 -1.000000019 -0.825000022
H -1.200000124 -4.650000102 -0.899999967
H 0.400000020 -4.500000213 -0.250000005
H -1.000000019 -4.700000066 0.825000022
C 2.050000002 1.549999992 0.850000067
C 1.250000087 2.250000107 -0.250000005
H 3.050000021 1.899999986 1.169999944
H 1.520000065 1.389999959 1.799999934
H 1.790000042 3.140000056 0.100000005
H 1.269999997 2.130000145 -1.340000122
C 3.619999903 -0.850000067 0.850000067
H 3.849999936 -0.430000011 1.840000131
H 3.300000089 -1.899999986 1.019999992
H 4.479999925 -0.879999994 0.160000002
C 2.900000132 -1.100000072 -1.299999924
H 3.020000094 -2.189999999 -1.169999944
H 2.140000036 -0.890000012 -2.069999911
H 3.840000044 -0.649999962 -1.650000044
C -0.820000013 3.599999868 0.899999967
C -1.980000003 4.120000039 0.050000003
H -1.140000017 3.200000163 1.870000059
H -0.109999999 4.429999962 1.080000036
H -2.589999957 4.790000100 0.670000061
H -2.630000280 3.300000089 -0.270000009
H -1.669999954 4.690000174 -0.839999986
C -1.150000035 2.900000132 -1.299999924
C -2.539999994 3.400000268 -1.749999971
H -1.159999927 1.799999934 -1.240000069
H -0.519999982 3.220000198 -2.140000036
H -2.539999994 4.500000213 -1.860000041
H -3.270000162 3.099999984 -0.980000047
H -2.849999916 2.970000131 -2.710000171
45
step=1 E=-2724.167012464860 Eh
Co 0.0000000000 0.0000000000 0.0000000000
P 2.1594320928 0.0000000000 0.0495282617
P 0.0000000000 2.1799999992 -0.0500000020
O -1.8800000031 0.0000000000 0.0500000020
O 0.0000000000 -1.8800000031 -0.0500000020
C -2.7500000039 -0.8500000022 0.0500000020
C -2.0000000005 -2.0000000005 0.0000000000
C -0.8500000022 -2.7500000039 -0.0500000020
C -4.2000000036 -0.6499999995 0.0999999987
C -0.6499999995 -4.2000000036 -0.0999999987
H -2.2499999999 -2.2499999999 1.0499999996
H -4.6500000004 -1.2000000003 0.8999999989
H -4.4999999997 0.4000000001 0.2499999994
H -4.7000000024 -1.0000000029 -0.8249999985
H -1.2000000003 -4.6500000004 -0.8999999989
H 0.4000000001 -4.4999999997 -0.2499999994
H -1.0000000029 -4.7000000024 0.8249999985
C 2.0500000025 1.5499999984 0.8500000022
C 1.2500000023 2.2499999999 -0.2499999994
H 3.0500000000 1.9000000018 1.1700000023
H 1.5200000003 1.3899999983 1.8000000031
H 1.7899999984 3.1399999994 0.0999999987
H 1.2700000010 2.1300000025 -1.3400000016
C 3.6199999995 -0.8500000022 0.8500000022
H 3.8500000002 -0.4299999981 1.8400000004
H 3.2999999994 -1.9000000018 1.0200000016
H 4.4800000010 -0.8800000002 0.1600000000
C 2.8999999993 -1.1000000016 -1.2999999990
H 3.0200000020 -2.1899999985 -1.1700000023
H 2.1400000018 -0.8899999995 -2.0700000011
H 3.8400000009 -0.6499999995 -1.6500000024
C -0.8199999989 3.6000000008 0.8999999989
C -1.9800000018 4.1200000036 0.0500000020
H -1.1399999989 3.2000000007 1.8699999984
H -0.1099999980 4.4300000043 1.0800000029
H -2.5899999986 4.7900000018 0.6699999982
H -2.6300000013 3.2999999994 -0.2699999981
H -1.6700000010 4.6900000031 -0.8400000028
C -1.1499999983 2.8999999993 -1.2999999990
C -2.5400000019 3.4000000034 -1.7500000011
H -1.1600000029 1.8000000031 -1.2400000029
H -0.5200000028 3.2199999994 -2.1400000018
H -2.5400000019 4.4999999997 -1.8599999991
H -3.2700000014 3.1000000020 -0.9799999989
H -2.8500000026 2.9700000000 -2.7100000013
45
step=2 E=-2724.499808390614 Eh
Co 0.0415178499 0.0387678653 -0.0110611089
P 2.1969631959 0.0013728302 0.0467662327
P -0.0035255660 2.2006208279 -0.0563591477
O -1.8483620461 0.0834422351 0.0313562880
O 0.0351091838 -1.8515548412 -0.0540017008
C -2.7366232006 -0.7897637435 0.0311475880
C -2.0475610596 -1.9980863973 -0.0087983554
C -0.8593351743 -2.7178532977 -0.0537745213
C -4.1841854995 -0.5479928351 0.0744081143
C -0.6543519183 -4.1711177597 -0.0998848586
H -2.3068032086 -2.2678227659 1.0451139210
H -4.6561963522 -1.0858762009 0.8824470608
H -4.4492427832 0.5134119660 0.2168223158
H -4.6873893749 -0.8900856940 -0.8523163525
H -1.2062003526 -4.6260205043 -0.9078832112
H 0.3998011179 -4.4622070589 -0.2449598674
H -1.0063703315 -4.6694836424 0.8261725223
C 2.1375478918 1.5667892311 0.8464849644
C 1.3606193130 2.2925474518 -0.2725110570
H 3.1433475247 1.9038056534 1.1700347018
H 1.5977767495 1.4148727430 1.7942319518
H 1.9212347020 3.1840456119 0.0691826508
H 1.3942097798 2.1650995494 -1.3670011959
C 3.6278802328 -0.8835695017 0.8862703037
H 3.8585292081 -0.4613782429 1.8784279967
H 3.2813775119 -1.9233971033 1.0639994123
H 4.4984897206 -0.9420074615 0.2135668781
C 2.9085373158 -1.1147891349 -1.3199028906
H 2.9937835202 -2.2050872547 -1.1718653146
H 2.1609262868 -0.8991270841 -2.1039657833
H 3.8622502013 -0.6956582417 -1.6761521298
C -0.8693422228 3.5880972482 0.9599176565
C -2.0310110332 4.1285794606 0.1721906506
H -1.1658031106 3.1243650982 1.9130817286
H -0.1827757553 4.4314415178 1.1751705145
H -2.6647415072 4.7577262779 0.8223175069
H -2.6531150970 3.2747668486 -0.2153316309
H -1.7103100330 4.7540252929 -0.6653892579
C -1.1823776904 2.8512042043 -1.3798108656
C -2.6113239285 3.2866391344 -1.8256504978
H -1.1805415556 1.7426549818 -1.3032593065
H -0.5723640095 3.1623770563 -2.2441509395
H -2.6758648703 4.3752243149 -1.9854820252
H -3.3125793989 3.0016505552 -0.9931052834
H -2.9194219981 2.7997895062 -2.7671736745
45
step=3 E=-2724.831272158679 Eh
Co 0.0697680817 0.0765385524 -0.0210823887
P 2.2090634957 0.0047504230 0.0300766070
P -0.0097940566 2.2427698445 -0.0720630217
O -1.8396245949 0.1502790675 0.0222303640
O 0.0685513824 -1.8296243209 -0.0462973597
C -2.7035088549 -0.7994963150 0.0386039404
C -2.2269955304 -2.1418357180 0.0383783092
C -0.9063111713 -2.6635282943 -0.0321289178
C -4.1428562406 -0.4731159286 0.0686065158
C -0.6270250853 -4.1123954972 -0.0979588723
H -2.5336776470 -2.5696742726 1.0468495068
H -4.6548974834 -0.9772219845 0.9025532910
H -4.3247246098 0.6114596385 0.1800991404
H -4.6493539834 -0.8152015909 -0.8574816311
H -1.1842769367 -4.5861425737 -0.9188404539
H 0.4459576206 -4.3226739608 -0.2586123831
H -0.9407954674 -4.6342738076 0.8313189602
C 2.2569423116 1.6141916448 0.8070904511
C 1.5049851134 2.4096954453 -0.3269722400
H 3.2729552216 1.9481031866 1.1157534708
H 1.7014440577 1.4692511500 1.7521542189
H 2.0900251424 3.3195625815 -0.0256901066
H 1.5695380753 2.2668016111 -1.4255452932
C 3.5516231353 -0.9287117885 1.0044329972
H 3.7643463998 -0.4829879874 1.9965801949
H 3.1594998160 -1.9469586348 1.2095476609
H 4.4554065275 -1.0440068952 0.3868852677
C 2.8683578304 -1.0908953848 -1.4064032834
H 2.8936535255 -2.1713726450 -1.1904732664
H 2.1505723138 -0.8952119358 -2.2299311530
H 3.8436931407 -0.7237759512 -1.7763137329
C -0.8880974424 3.5749333781 1.0360126283
C -2.0957622740 4.0906115977 0.2877485921
H -1.1561977722 3.0779723249 1.9883139568
H -0.1908988058 4.4099781501 1.2676280729
H -2.7533164890 4.6827550988 0.9558508029
H -2.6365599918 3.2015246915 -0.1111155100
H -1.8448500827 4.7314205814 -0.5782891079
C -1.1551659743 2.8313613788 -1.5079709699
C -2.6213350955 3.1940224205 -1.8498281434
H -1.2112234175 1.7122507472 -1.5499471720
H -0.5644456664 3.1637283876 -2.3872774369
H -2.7297068100 4.2896834507 -1.9677430803
H -3.3106683377 2.8776609060 -0.9904919927
H -2.9225012697 2.7008002174 -2.7927323288
45
step=4 E=-2725.023621128114 Eh
Co 0.0450321045 0.1015992504 -0.0231697439
P 2.1860515227 0.0374327807 -0.0098657653
P -0.0006206913 2.2994839486 -0.1118017301
O -1.8698369273 0.1510292851 0.0443480413
O 0.0338046647 -1.7985246798 -0.0172787163
C -2.6682361430 -0.8596009112 0.1082103496
C -2.4068454464 -2.2645024571 0.1668427775
C -1.0054594186 -2.5562536888 0.0416350810
C -4.1108131169 -0.4742080211 0.0912709798
C -0.6622249460 -4.0054487938 -0.0900314423
H -2.8569096649 -2.9416354347 0.9266366504
H -4.6520338804 -0.9388391543 0.9396459612
H -4.2450057590 0.6221406360 0.1495717312
H -4.6018042122 -0.8475633676 -0.8302471919
H -1.2452280356 -4.4714274112 -0.9058274160
H 0.4146559121 -4.1482266008 -0.2952855202
H -0.9210706946 -4.5628680830 0.8357741028
C 2.3206697039 1.7065383413 0.6872545319
C 1.5835230913 2.5664776501 -0.4215176650
H 3.3425410336 2.0498147483 0.9565223142
H 1.7554541470 1.5784065777 1.6327480619
H 2.1712527752 3.4904188513 -0.1891665441
H 1.6729680517 2.3880383351 -1.5123932860
C 3.3764144760 -0.9206260623 1.1019901152
H 3.5396935918 -0.4374954575 2.0845235042
H 2.9383060503 -1.9196269486 1.3152635480
H 4.3196061778 -1.0760504326 0.5482408445
C 2.8489707659 -0.9418603041 -1.4914638428
H 2.8372829818 -2.0056820660 -1.2020198659
H 2.1688273231 -0.7666345794 -2.3499209707
H 3.8465650522 -0.5883129132 -1.8223730541
C -0.8178496453 3.5099489170 1.1619067652
C -2.0761714295 4.0691456720 0.5409395550
H -1.0213446604 2.9069449007 2.0692215098
H -0.1018637804 4.3121910245 1.4454178590
H -2.7421767272 4.5643901593 1.2733449111
H -2.5428019495 3.2099880367 0.0050981605
H -1.8325967208 4.8047859841 -0.2442573653
C -1.0637771738 2.7087733704 -1.6755183701
C -2.5536919776 3.0062765963 -1.9800261217
H -1.1144063110 1.5910967931 -1.7505779497
H -0.4269349713 3.0058418214 -2.5328920200
H -2.7198182504 4.0846686891 -2.1664534084
H -3.2109330727 2.7665150337 -1.0829120902
H -2.8492939797 2.4370506540 -2.8803523595
45
step=5 E=-2725.129491518195 Eh
Co 0.0172356855 0.0625783482 -0.0615795107
P 2.1701721778 0.0258144931 -0.0695123676
P -0.0009922176 2.2970392253 -0.1857923158
O -1.8999836954 0.1231672073 0.0431312706
O 0.0587189979 -1.8407298968 -0.0302430093
C -2.7343421481 -0.8641316753 0.1290399992
C -2.3190538270 -2.2209904808 0.0833144337
C -0.9494032087 -2.6483338715 0.0551453336
C -4.2233996665 -0.5286268080 0.1768998447
C -0.6298847452 -4.1452568720 0.0789118811
H -2.9688267022 -2.7696326353 0.7641902070
H -4.7181651503 -1.0696170510 1.0172099164
H -4.3946795974 0.5581404264 0.2910627262
H -4.7210202439 -0.8818654132 -0.7493092150
H -1.1922860052 -4.6766487177 -0.7201912476
H 0.4539665671 -4.3223847328 -0.0467072226
H -0.9540181081 -4.5991465196 1.0406972256
C 2.4161117094 1.7800614504 0.4920996106
C 1.6583034121 2.7240124344 -0.5350335093
H 3.4484316539 2.1328232421 0.6992739058
H 1.8607787039 1.7005183212 1.4501893844
H 2.2222492317 3.6732016394 -0.3779377272
H 1.8003522940 2.4759720763 -1.6092258419
C 3.0164251531 -0.9160837376 1.3052388739
H 3.0371746192 -0.3474240560 2.2545345974
H 2.4878379287 -1.8730001398 1.5006573292
H 4.0445926651 -1.1441211710 0.9641927487
C 2.7932602755 -0.6140580665 -1.7022256830
H 2.7722484621 -1.6955610690 -1.4854392806
H 2.1278300407 -0.3641133971 -2.5527007673
H 3.8073694013 -0.2448169671 -1.9621805826
C -0.7116293875 3.3121859200 1.2476093024
C -2.0243452178 3.9015864026 0.7562087661
H -0.8552544671 2.5976861943 2.0856343358
H 0.0417972600 4.0588779462 1.5793547925
H -2.6941783268 4.2723941689 1.5534276376
H -2.4521924371 3.1140727508 0.1005984127
H -1.8113749561 4.7329085099 0.0525450585
C -0.9346261547 2.6271575088 -1.8441222533
C -2.4193163760 3.0304757167 -2.0662193531
H -0.9483119254 1.5544508034 -2.1787334676
H -0.2146654929 3.0332317960 -2.5846084898
H -2.5579273587 4.1306390315 -2.1271311287
H -3.1025872519 2.7353608207 -1.2369342667
H -2.7283623170 2.5801123014 -3.0268964587
45
step=6 E=-2725.171178286980 Eh
Co -0.0481611316 0.0256791372 -0.0372363714
P 2.1173471459 0.0850073856 -0.0392512813
P -0.0663662558 2.2728251877 -0.2755088194
O -1.9478628681 0.0954887070 0.0665451750
O 0.0119331379 -1.8718044687 0.0743035023
C -2.7448849209 -0.9266064374 0.2009398331
C -2.3873864584 -2.3141921138 0.2707617277
C -0.9965623238 -2.6877099045 0.2097095930
C -4.2317200565 -0.5690854619 0.2032015993
C -0.6367466368 -4.1760659365 0.2357645887
H -3.0012021380 -3.2114265717 0.3496659363
H -4.7548743604 -1.0551869163 1.0604181331
H -4.3699903540 0.5258222096 0.2538826035
H -4.7034284344 -0.9619201335 -0.7207391453
H -1.2049031511 -4.7229695993 -0.5507309468
H 0.4499502882 -4.3110843637 0.0880871474
H -0.9279539640 -4.6214947887 1.2111183438
C 2.5190262815 1.8643982987 0.3206748418
C 1.6870947197 2.7772520873 -0.6402061053
H 3.5738359514 2.1981591601 0.4245268125
H 2.0415479057 1.9340307542 1.3208657501
H 2.2218599917 3.7478576020 -0.5629242787
H 1.8812097359 2.4114041066 -1.6751463878
C 2.8086081258 -0.9811067399 1.2771503879
H 2.7746012976 -0.4324203901 2.2369763320
H 2.2253253945 -1.9182601697 1.3558494737
H 3.8655200985 -1.2314773759 1.0488300485
C 2.8830162419 -0.4241660143 -1.6117549600
H 2.8230365989 -1.5279277204 -1.5232183833
H 2.2807684041 -0.1056449187 -2.4817548678
H 3.9365874668 -0.1035139709 -1.7437837757
C -0.6696418866 3.1797410949 1.2202663570
C -2.0308692961 3.7871611271 0.8484151617
H -0.7720543504 2.4012049998 2.0071344989
H 0.1138626579 3.8910896980 1.5563710419
H -2.6785975350 4.0497650848 1.7045845034
H -2.4913820938 3.0502047884 0.1488706653
H -1.8736956426 4.6938083911 0.2197016649
C -0.9532052025 2.5991323005 -1.9393512786
C -2.3713530557 3.1956227081 -2.0978368483
H -0.9205000121 1.6226076074 -2.4900454491
H -0.1251134542 3.1604194470 -2.4269544934
H -2.4006453724 4.2993572996 -1.9673291410
H -3.1207985371 2.8151024014 -1.3887866304
H -2.6977245757 2.9736888122 -3.1322211133
45
step=7 E=-2725.184209152854 Eh
Co -0.0669149539 -0.0131530991 -0.0644849413
P 2.1117187308 0.0973558694 -0.0315917622
P -0.1015786018 2.2384901387 -0.3382853168
O -1.9723804514 0.0950143904 0.0034564750
O 0.0420094687 -1.9086609723 0.0717945107
C -2.7771611205 -0.9138931205 0.1223065707
C -2.3064583183 -2.2419756562 0.1691198643
C -0.9743768200 -2.7043989877 0.1954545230
C -4.2597473172 -0.6108190608 0.1748019071
C -0.6706243603 -4.1795093991 0.3369275370
H -3.2105574929 -2.8880208228 0.1521452969
H -4.7422119376 -1.1313059238 1.0285896781
H -4.4216424022 0.4782243466 0.2597225387
H -4.7431097970 -0.9864549721 -0.7507623795
H -1.2084970987 -4.7564250657 -0.4438712323
H 0.4171107424 -4.3505321599 0.2522729611
H -1.0248010646 -4.5483356917 1.3219699288
C 2.5473714632 1.8646097470 0.2910543950
C 1.6738982659 2.7469545927 -0.6552192604
H 3.6126545344 2.1686789008 0.3531465172
H 2.1332024871 2.0107961400 1.3151871043
H 2.1683945791 3.7361710575 -0.5737285484
H 1.9045678726 2.3837948300 -1.6832113295
C 2.8470653740 -0.9865546352 1.2346833030
H 2.7820033862 -0.4732101368 2.2131903509
H 2.2737395712 -1.9310467439 1.2567834128
H 3.9167550440 -1.2079894347 1.0340634973
C 2.9943781388 -0.4300017960 -1.5459458552
H 2.9598969192 -1.5411923466 -1.5458035526
H 2.4479899714 -0.0975586393 -2.4464727553
H 4.0544822385 -0.1113993621 -1.5881284575
C -0.6791590705 3.1337552544 1.2017038833
C -2.0506851897 3.8016715908 0.9688799163
H -0.7663980364 2.3262982933 1.9576849839
H 0.1216530245 3.8260096776 1.5339253276
H -2.6453049704 3.9879229271 1.8806189123
H -2.5382183338 3.1252156417 0.2681971334
H -1.9273244402 4.7594387307 0.4175778699
C -0.9649637565 2.5922291530 -1.9917722199
C -2.3633640870 3.2033777440 -2.0988204369
H -0.9387285398 1.6085010045 -2.5089839970
H -0.3111789957 3.2095824998 -2.6465504972
H -2.3094706597 4.3073638410 -2.0097168915
H -3.1235091080 2.8623770408 -1.3572262469
H -2.7722694742 2.9780349019 -3.1031233992
45
step=8 E=-2725.197885764020 Eh
Co -0.0576959551 -0.0196615772 -0.0802992173
P 2.1356353235 0.0454000200 -0.0358795578
P -0.0903033307 2.2207410570 -0.3558222300
O -1.9577486601 0.0895544178 -0.0259586456
O 0.0294102370 -1.9091266687 0.0637166141
C -2.7540510411 -0.9201502387 0.0932891268
C -2.3336900785 -2.2596988516 0.1483111114
C -0.9975538975 -2.6853078683 0.1655239033
C -4.2211062197 -0.5919018576 0.1767146599
C -0.6870454833 -4.1459273877 0.3425113825
H -3.1220114044 -3.0230328171 0.2819800692
H -4.6924866908 -1.1003343258 1.0381869878
H -4.3650569505 0.4992300468 0.2684125501
H -4.7419723949 -0.9484912343 -0.7365137077
H -1.2113884156 -4.7476374084 -0.4238814717
H 0.4006718147 -4.3200122055 0.2643634599
H -1.0425826410 -4.4980539588 1.3322783747
C 2.5304261845 1.8177395989 0.3051502933
C 1.6714969336 2.7047433025 -0.6547860945
H 3.6025008712 2.0921429542 0.3551260254
H 2.1457786846 1.9734203957 1.3420927427
H 2.1281048810 3.7082277094 -0.5343656201
H 1.8949250037 2.3994100127 -1.7018315552
C 2.9119168840 -0.9548780794 1.2949171488
H 2.8232726715 -0.4323332308 2.2682083530
H 2.3571170151 -1.9109104669 1.3436037247
H 3.9850693185 -1.1538965585 1.1003021766
C 2.9576339738 -0.4854018720 -1.6067398532
H 2.9390044395 -1.5940491886 -1.6507285525
H 2.4009140031 -0.1235840036 -2.4925046390
H 4.0122497198 -0.1521998257 -1.6542699389
C -0.7053912851 3.1344500950 1.1715702350
C -2.0820528322 3.7904318746 0.9398363861
H -0.7958724115 2.3349234294 1.9332691409
H 0.0806047405 3.8399037494 1.5108509292
H -2.6572888354 3.9479832305 1.8688674919
H -2.5968843270 3.1081662549 0.2382603163
H -1.9748872342 4.7605012529 0.4184214265
C -0.9744029126 2.6431881324 -1.9629586844
C -2.3687616543 3.2465708131 -2.1337184920
H -0.9579709950 1.6422225706 -2.4387433518
H -0.2540811694 3.2725646432 -2.5272352319
H -2.3380185949 4.3465837351 -2.0196211007
H -3.1374332207 2.8668626753 -1.4237166604
H -2.7334061577 3.0395852810 -3.1593635541
45
step=9 E=-2725.206135219723 Eh
Co -0.0752143073 -0.0286673534 -0.0864675289
P 2.1203435746 0.0456773099 -0.0311772237
P -0.0935692035 2.1901165359 -0.4073069378
O -1.9716100062 0.0819872919 -0.0503026437
O 0.0146723666 -1.9117821732 0.1066633549
C -2.7630761489 -0.9316027596 0.0829872322
C -2.3536661003 -2.2729384315 0.1810667015
C -1.0132530458 -2.6900855119 0.2046739395
C -4.2314568548 -0.6008708251 0.1340644110
C -0.6984948609 -4.1512044785 0.3879676141
H -3.1083671719 -3.0603943581 0.3007850140
H -4.7192869659 -1.0904162750 0.9976178295
H -4.3783573413 0.4921101312 0.2017358455
H -4.7446209451 -0.9692952985 -0.7792011888
H -1.2182018355 -4.7673138694 -0.3715483726
H 0.3891903306 -4.3271621271 0.3099433407
H -1.0506670896 -4.5000194699 1.3800930350
C 2.5280893753 1.8176641210 0.2631246858
C 1.6781647893 2.6975323740 -0.6955091360
H 3.6097122469 2.0632542424 0.2626261655
H 2.1924969640 2.0114866353 1.3097434792
H 2.0466950519 3.7342824741 -0.5457925684
H 1.9153020738 2.4304326856 -1.7498263076
C 2.9089318625 -0.9319434049 1.3078553030
H 2.7825039641 -0.4209411808 2.2828492073
H 2.3808720699 -1.9051586409 1.3458360949
H 3.9893216146 -1.0963409834 1.1262239537
C 2.9712128364 -0.4788151451 -1.5800054767
H 2.9481908554 -1.5849501653 -1.6475692999
H 2.4529642672 -0.0841205689 -2.4759836191
H 4.0290984715 -0.1485785699 -1.5767301237
C -0.6809949683 3.0877292114 1.1323635144
C -2.0586603114 3.7375434720 0.9675657536
H -0.7364570911 2.2892362148 1.8993361354
H 0.1070934496 3.8019554838 1.4485599540
H -2.5658610892 3.8667957340 1.9407375511
H -2.6582387008 3.0753180761 0.3085030195
H -1.9760648199 4.7210759737 0.4718245417
C -0.9781072361 2.6528373829 -2.0016483102
C -2.3701141392 3.3027529226 -2.1100907140
H -0.9685109122 1.6734794279 -2.5215255634
H -0.2461636266 3.3068339644 -2.5206233401
H -2.3367168318 4.3928446144 -1.9268702446
H -3.1505392777 2.8888609424 -1.4342417409
H -2.7277563325 3.1653361057 -3.1505025536
45
step=10 E=-2725.199044998428 Eh
Co -0.1302056133 -0.0328131409 -0.1124612345
P 2.0992520515 0.0764261920 -0.0187479544
P -0.0802312954 2.0653860481 -0.5662041505
O -2.0185368956 0.0892709572 -0.1479743643
O -0.0485828987 -1.8901472101 0.2451039280
C -2.8154151751 -0.9184514591 0.0233501593
C -2.4240739745 -2.2510952612 0.2528061400
C -1.0802130296 -2.6700311103 0.3213251517
C -4.2845691318 -0.5887519812 -0.0465564365
C -0.7712390690 -4.1313609012 0.5350539419
H -3.1444806063 -3.0618278363 0.3381511521
H -4.8367385358 -1.0291299097 0.8059250100
H -4.4411300798 0.5061357422 -0.0508088809
H -4.7464508776 -0.9961680224 -0.9711103047
H -1.2827707645 -4.7776373464 -0.2074020434
H 0.3157128510 -4.3208870004 0.4685257005
H -1.1268424945 -4.4596733526 1.5337679308
C 2.5606248880 1.8515875096 0.1330733159
C 1.7238392841 2.6608349472 -0.8089987919
H 3.6514913819 2.0099912552 -0.0290758499
H 2.3767500383 2.1451445622 1.1896628509
H 1.4673964873 3.7348074984 -0.6595344221
H 2.0234357629 2.5359304967 -1.8699831346
C 2.9156569672 -0.8257329401 1.3510269393
H 2.6582456107 -0.3669035241 2.3254265043
H 2.4965137534 -1.8540635965 1.3484313772
H 4.0135161337 -0.8609261737 1.2206463331
C 3.0250713138 -0.4287050501 -1.5163965954
H 2.9680139986 -1.5207444801 -1.6797183895
H 2.6358697583 0.0893089188 -2.4155989078
H 4.0866752041 -0.1376806049 -1.3678958092
C -0.6084485274 2.9285135205 0.9764531403
C -2.0103444487 3.5538685210 1.1120367287
H -0.5092183088 2.1376064541 1.7490256030
H 0.1725999424 3.6869055638 1.1954401339
H -2.1960918631 3.5802076277 2.2052667432
H -2.9549846017 3.0256051006 0.6995470007
H -2.0280611916 4.5805353618 0.7142401654
C -0.9402538557 2.6266119130 -2.1008116565
C -2.2858915792 3.3336435281 -1.9953832097
H -0.9764641382 1.6960555235 -2.7005404105
H -0.2254371784 3.3321615631 -2.5723342262
H -2.2787634989 4.3841946070 -1.6546374955
H -3.0340085585 2.8228185741 -1.3711679780
H -2.6367030833 3.3425081377 -3.0493015706
45
step=11 E=-2725.216548130307 Eh
Co -0.1026547060 -0.0316501771 -0.0972973185
P 2.0951694544 0.0629327206 -0.0062976947
P -0.0785839642 2.1356426872 -0.5093674571
O -1.9971047966 0.0763343999 -0.1126353511
O -0.0143684155 -1.9041969845 0.2021006899
C -2.7923450053 -0.9341680758 0.0406539882
C -2.3826822471 -2.2692601529 0.2237697047
C -1.0384153150 -2.6916161526 0.2816389675
C -4.2658193912 -0.6103200052 -0.0006006784
C -0.7252073132 -4.1562102596 0.4727578214
H -3.1385277489 -3.0563400739 0.3114272008
H -4.8026358701 -1.0768797326 0.8486030506
H -4.4251924929 0.4833452759 0.0236917042
H -4.7278530091 -1.0061145849 -0.9296324356
H -1.2435933529 -4.7824250339 -0.2815471971
H 0.3625890570 -4.3361440944 0.3997759773
H -1.0780168799 -4.4996021967 1.4674602340
C 2.5660682837 1.8421976975 0.1978276325
C 1.7122434280 2.6856102218 -0.7535926642
H 3.6586657652 2.0016859227 0.0686183235
H 2.3565221253 2.1177665651 1.2555798998
H 1.7969344784 3.7794785528 -0.5829459170
H 1.9804873620 2.5017054420 -1.8153510305
C 2.8935077917 -0.8808092100 1.3452721077
H 2.6736875786 -0.4075957881 2.3218639203
H 2.4432183116 -1.8942138962 1.3457184180
H 3.9891018644 -0.9548759290 1.2019698459
C 2.9835214663 -0.4612627442 -1.5259494586
H 2.8983501998 -1.5578365398 -1.6523654034
H 2.5556772941 0.0298504987 -2.4215174420
H 4.0554467485 -0.1881972161 -1.4389013068
C -0.6166572623 3.0412217629 1.0479125920
C -1.9980730374 3.6879998430 1.0739897681
H -0.5632893038 2.2520668696 1.8266126055
H 0.1639371290 3.7887978790 1.3028392485
H -2.3445033706 3.7649153083 2.1233418184
H -2.7246264132 3.0761968745 0.5293207237
H -1.9989177911 4.7045418200 0.6389675894
C -0.9716302204 2.6464251756 -2.0719033984
C -2.3793612993 3.2769670464 -2.0569684374
H -0.9877928349 1.6919839790 -2.6365376838
H -0.2860385323 3.3373283353 -2.6062883332
H -2.3372968905 4.3454055740 -1.7729987628
H -3.1136799224 2.7794326614 -1.3919104904
H -2.7958538980 3.2341198103 -3.0843175379
45
step=12 E=-2725.217753058796 Eh
Co -0.0975100517 -0.0231569151 -0.0945915225
P 2.0933462378 0.0675111357 -0.0056419524
P -0.0795798928 2.1512084783 -0.5000039138
O -1.9959725996 0.0813494318 -0.1097466912
O -0.0037117005 -1.8977628403 0.2051684809
C -2.7937823024 -0.9285206649 0.0440914301
C -2.3725353226 -2.2604803587 0.2239746951
C -1.0286079648 -2.6847541779 0.2867441151
C -4.2691521041 -0.6113238481 0.0013270451
C -0.7174523735 -4.1488039098 0.4817235988
H -3.1632272386 -3.0175618654 0.3210357333
H -4.8056638492 -1.0864907885 0.8467229282
H -4.4323676617 0.4814545816 0.0305172565
H -4.7208830971 -1.0087807300 -0.9318833456
H -1.2420246217 -4.7708857279 -0.2717837874
H 0.3703444840 -4.3275043304 0.4071798323
H -1.0691488795 -4.4878494612 1.4784202772
C 2.5785550334 1.8489871395 0.1994376007
C 1.7132629360 2.6908461567 -0.7512387038
H 3.6696812163 2.0024738066 0.0557378658
H 2.3733910001 2.1201331370 1.2584683700
H 1.8382981321 3.7804026444 -0.5814811301
H 1.9720974760 2.4985726394 -1.8144796570
C 2.8947745220 -0.8830207391 1.3389685110
H 2.6798459425 -0.4090006289 2.3163858822
H 2.4488342707 -1.8975234380 1.3388271064
H 3.9905564973 -0.9540894162 1.1921162375
C 2.9659900725 -0.4870717715 -1.5281172116
H 2.8487974783 -1.5829135058 -1.6382820014
H 2.5364116443 0.0013108228 -2.4240421238
H 4.0452636353 -0.2397807853 -1.4621008388
C -0.6292816446 3.0426134727 1.0538709020
C -2.0408586678 3.6439060043 1.0761123469
H -0.5605362559 2.2609245802 1.8393025534
H 0.1514628841 3.7958252923 1.2935311354
H -2.3926533322 3.7360075874 2.1225998462
H -2.7660174114 2.9911742542 0.5251125804
H -2.0673882062 4.6495432209 0.6175303528
C -0.9553954998 2.6837637447 -2.0650707240
C -2.3582630476 3.2988880557 -2.0677126856
H -0.9530321825 1.7496153294 -2.6665424010
H -0.2226677180 3.3757743146 -2.5316770838
H -2.3687300261 4.3527446606 -1.7309614702
H -3.0710041393 2.7408604315 -1.4428009181
H -2.7329069680 3.2882525064 -3.1112847943
45
step=13 E=-2725.219356529416 Eh
Co -0.0939399519 -0.0102126358 -0.0969118051
P 2.0916144695 0.0761603860 0.0047536195
P -0.0652762275 2.1616416614 -0.4948478762
O -1.9945944760 0.0857463028 -0.1280770756
O -0.0056948047 -1.8860696568 0.2117775888
C -2.7933725443 -0.9237507040 0.0258344799
C -2.3768438524 -2.2566520455 0.2177944022
C -1.0300280197 -2.6737023965 0.2886694482
C -4.2684044334 -0.6070999154 -0.0386496045
C -0.7166378065 -4.1367125777 0.4864895313
H -3.1573772918 -3.0248889159 0.3243352839
H -4.8177745274 -1.0864647606 0.7961603622
H -4.4326692267 0.4852557205 -0.0091093429
H -4.6993593457 -1.0058374034 -0.9809418914
H -1.2460470517 -4.7561201164 -0.2651691587
H 0.3714025677 -4.3122653906 0.4098428701
H -1.0653152058 -4.4731146042 1.4852299237
C 2.5980491816 1.8614454042 0.2055105022
C 1.7255147256 2.6947008901 -0.7392907174
H 3.6864365539 1.9993222311 0.0328762941
H 2.4069097288 2.1321715945 1.2658862725
H 1.8511756310 3.7836389578 -0.5667178373
H 1.9798101014 2.5018024694 -1.8035764883
C 2.8846702002 -0.8708609542 1.3574447970
H 2.6556774414 -0.3986126714 2.3326163952
H 2.4536367070 -1.8910518547 1.3519678536
H 3.9829848800 -0.9272005278 1.2214068447
C 2.9354632620 -0.5084550553 -1.5267663562
H 2.7681432514 -1.5987590880 -1.6286364909
H 2.5121833930 -0.0063365843 -2.4180246207
H 4.0241710336 -0.3042040574 -1.4787457873
C -0.6187374133 3.0633544852 1.0505931013
C -2.0443395156 3.6282128677 1.0973288899
H -0.5063363996 2.3023356401 1.8516280564
H 0.1498645221 3.8401580554 1.2524928758
H -2.3677058676 3.7636807095 2.1480955888
H -2.7797035333 2.9472080957 0.5958497587
H -2.1020786588 4.6118596002 0.5957371960
C -0.9285240470 2.7011843124 -2.0687549576
C -2.3531223591 3.2557006153 -2.0395443189
H -0.9008038533 1.7739928165 -2.6824038939
H -0.2600023361 3.4112939606 -2.6013874034
H -2.4136355305 4.3008224295 -1.6826166278
H -3.0236691564 2.6464974987 -1.4097170886
H -2.7397863966 3.2399136751 -3.0777087824
45
step=14 E=-2725.221331966614 Eh
Co -0.0962695125 0.0106656321 -0.1093257921
P 2.0855418308 0.0913975800 0.0138000522
P -0.0434368433 2.1752959514 -0.4968657310
O -1.9990024848 0.0975133034 -0.1687674203
O -0.0118260567 -1.8655302048 0.2177173510
C -2.7971321086 -0.9115962073 -0.0142895942
C -2.3766430669 -2.2397235878 0.1960360050
C -1.0326344141 -2.6566732919 0.2886253316
C -4.2721445824 -0.6019778692 -0.1041446686
C -0.7200977420 -4.1173170866 0.5047255902
H -3.1598003406 -3.0062919023 0.3041021921
H -4.8356848030 -1.0938170334 0.7134677462
H -4.4431467944 0.4889036401 -0.0675144193
H -4.6770780240 -0.9954950523 -1.0600686090
H -1.2538996667 -4.7432019993 -0.2377288652
H 0.3677875779 -4.2931834652 0.4288002963
H -1.0664041412 -4.4393023680 1.5090361114
C 2.6308977403 1.8755427870 0.1969007611
C 1.7452979017 2.7054642140 -0.7315203420
H 3.7123861259 1.9832290207 -0.0281626795
H 2.4748025648 2.1526071218 1.2600905499
H 1.8365649673 3.7979435210 -0.5546423387
H 1.9963190897 2.5202566952 -1.7974868439
C 2.8620962021 -0.8514392294 1.3787970146
H 2.5996329684 -0.3894242179 2.3505126285
H 2.4574031349 -1.8815851128 1.3561798735
H 3.9649260207 -0.8791965822 1.2708704788
C 2.9001880893 -0.5354822898 -1.5173609110
H 2.6571408963 -1.6119236476 -1.6163889147
H 2.5059617221 -0.0073917346 -2.4071757491
H 3.9999052861 -0.4039661042 -1.4733841538
C -0.5989021505 3.0994162582 1.0375707008
C -2.0406286053 3.6095849551 1.1316440160
H -0.4049441608 2.3711468600 1.8541774231
H 0.1268324886 3.9268416713 1.1910230447
H -2.3091711283 3.7952372975 2.1897703632
H -2.7787601562 2.9012549804 0.7087300379
H -2.1625116990 4.5649112934 0.5868447435
C -0.8999476452 2.7084003699 -2.0674579335
C -2.3569001422 3.1627122346 -2.0025481801
H -0.8342773271 1.7929594003 -2.6968671614
H -0.2604096417 3.4497686278 -2.5954735681
H -2.4639333061 4.1862156604 -1.5995386866
H -2.9600879170 2.4812817138 -1.3657584565
H -2.7809853852 3.1609782370 -3.0255845551
45
step=15 E=-2725.222956181599 Eh
Co -0.1026911489 0.0404422110 -0.1294906569
P 2.0778828366 0.1005706020 0.0177324139
P -0.0270297555 2.2047729958 -0.5042556802
O -2.0062255002 0.1179712028 -0.2207100236
O -0.0192416500 -1.8342783822 0.2156353396
C -2.8019589502 -0.8918687732 -0.0628896918
C -2.3805452012 -2.2157362284 0.1668651066
C -1.0380710183 -2.6272750795 0.2847332281
C -4.2770157452 -0.5887238096 -0.1726223392
C -0.7238666009 -4.0825110926 0.5343138136
H -3.1603555283 -2.9850694714 0.2706567178
H -4.8528258048 -1.1004223752 0.6232863393
H -4.4563871978 0.5000022062 -0.1177562248
H -4.6617089001 -0.9637157230 -1.1444559652
H -1.2620496437 -4.7281041727 -0.1874260802
H 0.3635570456 -4.2602187526 0.4563654373
H -1.0623396252 -4.3782306352 1.5492938435
C 2.6645190892 1.8761359044 0.1713867185
C 1.7632556400 2.7227001307 -0.7375987076
H 3.7348469174 1.9486609944 -0.1100465386
H 2.5545851186 2.1629904134 1.2374161734
H 1.8402389130 3.8160213432 -0.5576085254
H 2.0066492535 2.5485049154 -1.8070990956
C 2.8284588981 -0.8356963966 1.4005904772
H 2.5219557034 -0.3864261248 2.3654389897
H 2.4507020766 -1.8750990922 1.3563513719
H 3.9351445517 -0.8335402165 1.3335096219
C 2.8734336836 -0.5842761668 -1.4959011256
H 2.5461103032 -1.6387562870 -1.5920732228
H 2.5308138314 -0.0346458628 -2.3943123988
H 3.9794038856 -0.5425182708 -1.4370591214
C -0.5799747942 3.1423283164 1.0213072729
C -2.0501142709 3.5495334211 1.1825569877
H -0.2861807010 2.4605218644 1.8488628829
H 0.0813008148 4.0306721484 1.1155605281
H -2.2588252139 3.7730368343 2.2468949289
H -2.7627284604 2.7737654119 0.8400072272
H -2.2798870904 4.4680643032 0.6088260948
C -0.8677446244 2.7554636835 -2.0654846692
C -2.3542941487 3.0667258981 -1.9641805431
H -0.7307183652 1.8737743118 -2.7308203512
H -0.2831833196 3.5659657196 -2.5546626141
H -2.5408222545 4.0472515585 -1.4906608377
H -2.8349058658 2.2832054970 -1.3478432698
H -2.8222497594 3.0829216665 -2.9673584044
45
step=16 E=-2725.224780226752 Eh
Co -0.1150516955 0.0648096977 -0.1500958237
P 2.0692752101 0.1020227716 0.0151983397
P -0.0149606101 2.2384272790 -0.5058901046
O -2.0184890904 0.1310854942 -0.2657180466
O -0.0274468880 -1.8081258668 0.2019477913
C -2.8108098223 -0.8805255992 -0.1062987428
C -2.3867208155 -2.2003986862 0.1373255174
C -1.0442511438 -2.6030873979 0.2748552249
C -4.2861635426 -0.5843029283 -0.2276754982
C -0.7250685617 -4.0505387158 0.5594819168
H -3.1642161233 -2.9716896911 0.2356447805
H -4.8702382585 -1.1239199632 0.5425508181
H -4.4763049311 0.5009034517 -0.1427336198
H -4.6571878289 -0.9273587880 -1.2168292146
H -1.2699474692 -4.7210035654 -0.1338668877
H 0.3613243088 -4.2311706692 0.4720274492
H -1.0478300590 -4.3165553738 1.5878018397
C 2.6902642472 1.8625754946 0.1365310504
C 1.7784281521 2.7317062714 -0.7427480461
H 3.7495512785 1.9113679400 -0.1873737036
H 2.6276139891 2.1603973074 1.2037143692
H 1.8799904076 3.8217027838 -0.5586455068
H 2.0093065083 2.5656089887 -1.8164351525
C 2.7871091897 -0.8192926024 1.4247992820
H 2.4359930468 -0.3792906077 2.3787599614
H 2.4299180286 -1.8651125607 1.3643506780
H 3.8952920983 -0.7944976308 1.4010148239
C 2.8546046863 -0.6322950515 -1.4773279943
H 2.4638462530 -1.6649399636 -1.5778897313
H 2.5672603706 -0.0696204374 -2.3871102217
H 3.9591238634 -0.6661132712 -1.3918284791
C -0.5552178839 3.1948780029 1.0087009837
C -2.0462265154 3.4867787237 1.2268466374
H -0.1656322851 2.5690911707 1.8413355772
H 0.0314580773 4.1385432426 1.0426319871
H -2.2164931027 3.7401650789 2.2914827197
H -2.7001063164 2.6405008409 0.9531193276
H -2.3815643640 4.3614374479 0.6372182367
C -0.8493196199 2.8122085577 -2.0578733849
C -2.3630645451 2.9759313028 -1.9353811042
H -0.6254771662 1.9870522417 -2.7701768778
H -0.3219718240 3.7060232274 -2.4575564792
H -2.6141247540 3.9094944223 -1.4015356560
H -2.7424301323 2.1164259468 -1.3491705016
H -2.8681142034 3.0038364531 -2.9197785363
45
step=17 E=-2725.227229208580 Eh
Co -0.1429635437 0.0901900427 -0.1695115385
P 2.0495067505 0.0920039836 0.0033415755
P -0.0137629351 2.2849980426 -0.5047701968
O -2.0446985338 0.1298256457 -0.2969162804
O -0.0422888576 -1.7808891479 0.1812756367
C -2.8279236713 -0.8875996893 -0.1334868971
C -2.3947729978 -2.2019258438 0.1218925777
C -1.0490780407 -2.5876246976 0.2690849263
C -4.3044714180 -0.6039376289 -0.2623725098
C -0.7119251140 -4.0237245034 0.5872175214
H -3.1584686535 -2.9843073719 0.2225777049
H -4.8943378045 -1.1881396414 0.4691267227
H -4.5123706831 0.4734331908 -0.1272191080
H -4.6611160746 -0.8936994554 -1.2741124525
H -1.2714647981 -4.7260055385 -0.0616844966
H 0.3719521840 -4.2048343358 0.4702473279
H -0.9969625465 -4.2565297417 1.6348302509
C 2.7013402084 1.8279864048 0.0795316247
C 1.7827745710 2.7347725389 -0.7594975558
H 3.7497153442 1.8614175648 -0.2812304426
H 2.6978202430 2.1358743174 1.1467462362
H 1.9488057312 3.8153710050 -0.5698780381
H 1.9860478480 2.5779768001 -1.8408618462
C 2.7338487601 -0.8026346234 1.4464523836
H 2.3354856186 -0.3679273991 2.3840088430
H 2.3976173429 -1.8553609388 1.3784809499
H 3.8411407842 -0.7558572607 1.4651760815
C 2.8396076658 -0.7065446279 -1.4487859837
H 2.3980558783 -1.7180553970 -1.5556375757
H 2.6228113344 -0.1416119261 -2.3764950601
H 3.9356812996 -0.8070841527 -1.3155152722
C -0.5298525671 3.2611985515 0.9946399884
C -2.0362855417 3.3823556458 1.2781586484
H -0.0315995678 2.7154901581 1.8259999622
H -0.0472940392 4.2619115052 0.9562681469
H -2.1833000949 3.6416461436 2.3452464887
H -2.5818454722 2.4453124607 1.0573044025
H -2.5039808538 4.1960534323 0.6931672026
C -0.8313894737 2.9270313876 -2.0395603545
C -2.3631154711 2.9426875026 -1.9394984144
H -0.4950005914 2.2131560309 -2.8225349161
H -0.3771089467 3.9159539287 -2.2635968500
H -2.6860412040 3.8156671574 -1.3457552936
H -2.6792819075 2.0175765354 -1.4207416659
H -2.8653171821 3.0016034237 -2.9240021801
45
step=18 E=-2725.228876898555 Eh
Co -0.1572985177 0.0961190955 -0.1688792623
P 2.0398924568 0.0791350066 -0.0038327911
P -0.0127144756 2.2988075638 -0.4987686545
O -2.0568563015 0.1228334666 -0.2894817584
O -0.0493827026 -1.7740422334 0.1732737050
C -2.8385678162 -0.8963913281 -0.1272785286
C -2.4029208324 -2.2095281102 0.1334261815
C -1.0526330330 -2.5852488355 0.2729411930
C -4.3140633182 -0.6145833670 -0.2661942758
C -0.7032685207 -4.0175262087 0.5926701638
H -3.1637489987 -2.9930537973 0.2400112318
H -4.9134183506 -1.2281175881 0.4329904824
H -4.5274868287 0.4568269617 -0.0944089911
H -4.6545863430 -0.8634921899 -1.2944128299
H -1.2822277259 -4.7281873597 -0.0297165334
H 0.3766174521 -4.1998020134 0.4430407359
H -0.9529625306 -4.2396194757 1.6518217147
C 2.7017575304 1.8052159243 0.0471734438
C 1.7836626870 2.7257143931 -0.7702240383
H 3.7483860874 1.8407006300 -0.3209608736
H 2.7259691978 2.1153019067 1.1140753224
H 1.9858392359 3.7992256020 -0.5751305634
H 1.9665613133 2.5752293553 -1.8565672534
C 2.7070154276 -0.7918438994 1.4624591534
H 2.2906042955 -0.3502462797 2.3887507290
H 2.3777325117 -1.8475193940 1.4036427306
H 3.8134798655 -0.7390864928 1.4937936140
C 2.8348869008 -0.7423976632 -1.4394133756
H 2.3866747340 -1.7499705130 -1.5512231033
H 2.6458385286 -0.1756658295 -2.3720114097
H 3.9272662432 -0.8519107115 -1.2828982109
C -0.5121639550 3.2847728820 0.9899135863
C -2.0171347142 3.2996780477 1.3010502764
H 0.0412934176 2.7921974533 1.8195820267
H -0.0935037553 4.3110174139 0.9070876647
H -2.1685300874 3.5406010199 2.3720058914
H -2.4913985785 2.3207801017 1.0875240983
H -2.5509914838 4.0761590536 0.7235562057
C -0.8287351924 2.9982812817 -2.0147576544
C -2.3681782852 2.9633066820 -1.9610670971
H -0.4356667851 2.3600186795 -2.8345005961
H -0.4227031196 4.0247024108 -2.1389364166
H -2.7452074210 3.8098819950 -1.3596250458
H -2.7068182160 2.0206219721 -1.4903636163
H -2.8192090926 3.0460433714 -2.9687712545
45
step=19 E=-2725.229980283648 Eh
Co -0.1636310342 0.1032820652 -0.1619653063
P 2.0320833854 0.0761010984 -0.0057312710
P -0.0081936611 2.3015835390 -0.4952027808
O -2.0610755659 0.1286356540 -0.2766260285
O -0.0588837630 -1.7680820216 0.1728629522
C -2.8455633366 -0.8895973577 -0.1185556843
C -2.4118825539 -2.2033102114 0.1475903342
C -1.0609706535 -2.5812439118 0.2787250883
C -4.3186410251 -0.6049382222 -0.2755501247
C -0.7096738178 -4.0156543409 0.5877204865
H -3.1726775045 -2.9860793319 0.2627197053
H -4.9326161936 -1.2462728700 0.3852728116
H -4.5352254582 0.4594728589 -0.0675770455
H -4.6317596093 -0.8137836438 -1.3212351312
H -1.3156613313 -4.7207061877 -0.0147261028
H 0.3639863854 -4.2030626835 0.4036540489
H -0.9249113090 -4.2348892007 1.6552614393
C 2.7050755439 1.8002930754 0.0290594930
C 1.7855176284 2.7216429019 -0.7815656045
H 3.7512034165 1.8342155505 -0.3422882440
H 2.7439283591 2.1092906988 1.0957873375
H 1.9928422323 3.7928534228 -0.5776478126
H 1.9546969715 2.5780897970 -1.8711721980
C 2.6948879617 -0.7784168614 1.4720469297
H 2.2725026098 -0.3265484386 2.3903716937
H 2.3726506229 -1.8368561663 1.4264736185
H 3.8012385991 -0.7211833451 1.5030746865
C 2.8343657841 -0.7679793504 -1.4252706689
H 2.3833026938 -1.7737259835 -1.5360153910
H 2.6613959991 -0.1993924107 -2.3596871272
H 3.9253853929 -0.8737007649 -1.2563679046
C -0.4963909693 3.2930439839 0.9901041748
C -1.9928521592 3.2182055879 1.3345983060
H 0.1071567469 2.8593546818 1.8178273222
H -0.1379961318 4.3365671802 0.8576706825
H -2.1518466539 3.4427833435 2.4077718902
H -2.4052085959 2.2083748533 1.1237155812
H -2.5821373378 3.9534416775 0.7569246435
C -0.8320128376 3.0416060883 -1.9866594363
C -2.3675430410 2.9634269531 -1.9735744713
H -0.4039295219 2.4668507693 -2.8351708568
H -0.4762951771 4.0903804056 -2.0748536672
H -2.8067993731 3.7882942076 -1.3825286225
H -2.7171195781 2.0098438611 -1.5368427612
H -2.7618474250 3.0538105375 -3.0044398650
45
step=20 E=-2725.230489200388 Eh
Co -0.1562763929 0.0949435869 -0.1503952670
P 2.0369915043 0.0715434308 -0.0007324769
P -0.0049587012 2.2846752736 -0.4985037976
O -2.0536071813 0.1286954105 -0.2596618108
O -0.0573798400 -1.7776256801 0.1805697611
C -2.8426746858 -0.8872371519 -0.1071009089
C -2.4123428053 -2.2016186317 0.1591155796
C -1.0630473398 -2.5864707974 0.2842465710
C -4.3136421225 -0.5967827379 -0.2725771163
C -0.7170094805 -4.0246397912 0.5801726982
H -3.1798996742 -2.9791365083 0.2710093361
H -4.9361657949 -1.2516640527 0.3663071120
H -4.5289320451 0.4633929651 -0.0433968029
H -4.6110317744 -0.7827632882 -1.3270456830
H -1.3394673023 -4.7192082879 -0.0169197659
H 0.3525730678 -4.2160750645 0.3782203980
H -0.9160397023 -4.2476390707 1.6500867015
C 2.7046025254 1.8052290947 0.0330822241
C 1.7874223072 2.7138213704 -0.7896330846
H 3.7551886195 1.8398180543 -0.3251837287
H 2.7302016053 2.1162346024 1.0994024771
H 1.9713985341 3.7884912860 -0.5813651996
H 1.9615041966 2.5700820281 -1.8779373604
C 2.7006551487 -0.7761290051 1.4809276025
H 2.2889926589 -0.3104820781 2.3972452333
H 2.3716355054 -1.8327133669 1.4481630748
H 3.8078023037 -0.7279246450 1.5034058161
C 2.8429369245 -0.7611797665 -1.4268453405
H 2.4108632776 -1.7749672642 -1.5360832596
H 2.6537619040 -0.1912719687 -2.3574211848
H 3.9372466734 -0.8396702346 -1.2660747192
C -0.4867485989 3.2731220311 0.9937153195
C -1.9810301978 3.2043876715 1.3461008202
H 0.1251146457 2.8529201035 1.8217294702
H -0.1352814399 4.3161533797 0.8408800764
H -2.1386355257 3.4182133435 2.4210708568
H -2.4023153480 2.2018286804 1.1263780703
H -2.5695345255 3.9412850218 0.7684919909
C -0.8484996432 3.0207011299 -1.9781071744
C -2.3826617471 2.9825706609 -1.9836598416
H -0.4339621642 2.4488617729 -2.8355489278
H -0.4758052414 4.0631313202 -2.0759665499
H -2.8223443481 3.8237474094 -1.4148373128
H -2.7778598953 2.0455146282 -1.5504366120
H -2.7444417224 3.0728759850 -3.0266702664
45
step=21 E=-2725.230857497860 Eh
Co -0.1578435346 0.1013122168 -0.1473108828
P 2.0317994669 0.0774402810 0.0054418858
P -0.0010757102 2.2846908563 -0.5025782584
O -2.0562833672 0.1347415026 -0.2638508695
O -0.0630938605 -1.7731633936 0.1850824326
C -2.8465798240 -0.8813738239 -0.1156341056
C -2.4177691010 -2.1950615799 0.1541063896
C -1.0695184239 -2.5813396325 0.2839405082
C -4.3160851045 -0.5905554561 -0.2943163336
C -0.7253502617 -4.0197874393 0.5813584750
H -3.1880382923 -2.9712073673 0.2623055254
H -4.9474150119 -1.2739382864 0.3042686363
H -4.5401987565 0.4585630783 -0.0260455343
H -4.5898763604 -0.7334443931 -1.3618892109
H -1.3659930879 -4.7136686625 0.0036769702
H 0.3387984468 -4.2167040573 0.3574521591
H -0.9000173290 -4.2332179185 1.6575354978
C 2.7101226176 1.8130178957 0.0282951874
C 1.7908207244 2.7165721582 -0.7990220365
H 3.7575988783 1.8337934440 -0.3386106329
H 2.7393926863 2.1290869097 1.0925700808
H 1.9568511952 3.7933476879 -0.5860292481
H 1.9666781537 2.5754050516 -1.8869765584
C 2.6931319637 -0.7605392172 1.4936739363
H 2.2789688145 -0.2881477926 2.4054596769
H 2.3687958524 -1.8184972859 1.4670129858
H 3.8002740893 -0.7084496671 1.5197491456
C 2.8335735871 -0.7722329000 -1.4139336571
H 2.3886326169 -1.7809486667 -1.5172438137
H 2.6504765362 -0.2039051012 -2.3468706143
H 3.9270572157 -0.8598310950 -1.2533315084
C -0.4721825332 3.2816244147 0.9895181085
C -1.9525731454 3.1607514582 1.3849234308
H 0.1850820434 2.9138777562 1.8071703864
H -0.1728383655 4.3345075002 0.7953961533
H -2.0952245388 3.3862616905 2.4591912444
H -2.3365000458 2.1386603966 1.1866046783
H -2.5838387230 3.8622125961 0.8078223648
C -0.8531302630 3.0287995835 -1.9666645794
C -2.3832017548 2.9535241037 -1.9823661492
H -0.4244669740 2.4923686042 -2.8408517568
H -0.5006702547 4.0803331171 -2.0555347313
H -2.8467488494 3.7762255258 -1.4054087423
H -2.7492816431 1.9973144743 -1.5641294975
H -2.7470988307 3.0452007177 -3.0245263851
45
step=22 E=-2725.231193765313 Eh
Co -0.1570492492 0.0993925236 -0.1435499808
P 2.0299003844 0.0812736203 0.0150739463
P -0.0007751821 2.2800029659 -0.5109687438
O -2.0567246048 0.1332341690 -0.2689880676
O -0.0641657549 -1.7765267959 0.1911516694
C -2.8463481672 -0.8843517869 -0.1254758786
C -2.4177263324 -2.1980404209 0.1426522110
C -1.0705514689 -2.5850272883 0.2811197644
C -4.3150817438 -0.5925547616 -0.3078128647
C -0.7280469159 -4.0231092644 0.5828590202
H -3.1878416852 -2.9755956204 0.2430034183
H -4.9507294625 -1.3041921115 0.2512610175
H -4.5472320969 0.4428094066 0.0042158256
H -4.5748793055 -0.6861023453 -1.3844151579
H -1.3820352719 -4.7197996164 0.0242816329
H 0.3311306336 -4.2262136006 0.3411982456
H -0.8815839716 -4.2256347292 1.6644068260
C 2.7097497843 1.8193290529 0.0308899583
C 1.7917804322 2.7155867550 -0.8099317270
H 3.7568130242 1.8289299592 -0.3361905165
H 2.7319638515 2.1446787656 1.0922392290
H 1.9464379381 3.7944261420 -0.5991269120
H 1.9759934576 2.5702274274 -1.8954744997
C 2.6945130150 -0.7513419579 1.5049443458
H 2.2864447518 -0.2716108886 2.4157410541
H 2.3662522059 -1.8082367422 1.4843745035
H 3.8019778261 -0.7027853452 1.5289637352
C 2.8318166468 -0.7778121164 -1.3986522147
H 2.3865077232 -1.7876219278 -1.4905082651
H 2.6430593135 -0.2199473039 -2.3368394954
H 3.9258700213 -0.8641131090 -1.2417814211
C -0.4651203653 3.2860595474 0.9797617204
C -1.9346464257 3.1536191475 1.4141985731
H 0.2209581754 2.9502855992 1.7867675704
H -0.1951970217 4.3415093211 0.7563413979
H -2.0499254429 3.4032758268 2.4863069417
H -2.3211194487 2.1256742087 1.2486158443
H -2.5875555489 3.8370101958 0.8391544274
C -0.8610430433 3.0197962242 -1.9678703854
C -2.3904470155 2.9487142560 -1.9792805994
H -0.4371893698 2.4869164876 -2.8472126658
H -0.4974615663 4.0683950459 -2.0576965234
H -2.8470968451 3.7689148103 -1.3934844029
H -2.7508123199 1.9884653338 -1.5643510934
H -2.7640528256 3.0454532591 -3.0175065955
45
step=23 E=-2725.231676252024 Eh
Co -0.1586566993 0.0957910630 -0.1332786997
P 2.0261649038 0.0866908291 0.0358103901
P -0.0034359736 2.2747690036 -0.5210197946
O -2.0590749641 0.1295888749 -0.2737820944
O -0.0651501473 -1.7810693290 0.2021683906
C -2.8466762942 -0.8913848872 -0.1409898091
C -2.4178059236 -2.2060894566 0.1205972739
C -1.0712486134 -2.5906204115 0.2753036955
C -4.3140092068 -0.5971611510 -0.3267088567
C -0.7291089800 -4.0270772168 0.5842101498
H -3.1854893073 -2.9873314098 0.2044307296
H -4.9561116097 -1.3652166577 0.1417016616
H -4.5633787637 0.4002715885 0.0824463126
H -4.5486670671 -0.5761235370 -1.4130769895
H -1.4118196100 -4.7303586603 0.0707413785
H 0.3169267548 -4.2443274257 0.2999096827
H -0.8314534720 -4.2066218771 1.6760161202
C 2.7030028680 1.8274986935 0.0341725727
C 1.7906382679 2.7120371373 -0.8279957588
H 3.7505955399 1.8235776917 -0.3299164368
H 2.7129547095 2.1712683420 1.0895316290
H 1.9416633079 3.7927176911 -0.6242865871
H 1.9871512183 2.5545231418 -1.9092096356
C 2.6901258337 -0.7332362669 1.5333063217
H 2.2932828699 -0.2375391969 2.4406996332
H 2.3487305806 -1.7862917492 1.5262978743
H 3.7981071098 -0.6965747089 1.5540847524
C 2.8239760679 -0.7844424874 -1.3717344064
H 2.3824726636 -1.7981586480 -1.4404068583
H 2.6201460143 -0.2487964718 -2.3197129232
H 3.9195387573 -0.8661494107 -1.2237871835
C -0.4483543547 3.3022421127 0.9641885971
C -1.8879963092 3.1296461581 1.4669681652
H 0.2888780861 3.0268137065 1.7478943138
H -0.2390487280 4.3608975282 0.6941021579
H -1.9642045202 3.4140140040 2.5340746460
H -2.2376395272 2.0851652590 1.3497633333
H -2.5920392459 3.7708846623 0.9034907946
C -0.8761753380 3.0109520223 -1.9728965240
C -2.4081538545 2.9426999493 -1.9805262423
H -0.4559741277 2.4845113418 -2.8584333122
H -0.5001176272 4.0567701712 -2.0524150909
H -2.8524099770 3.7514652440 -1.3696701000
H -2.7555886883 1.9706774782 -1.5831399338
H -2.7985934725 3.0581014592 -3.0105015762
45
step=24 E=-2725.232157359690 Eh
Co -0.1588328067 0.0892788577 -0.1200539903
P 2.0242732069 0.0924954421 0.0639416400
P -0.0097982549 2.2676573733 -0.5347563014
O -2.0581314243 0.1244813290 -0.2800528278
O -0.0639526162 -1.7864772607 0.2181400445
C -2.8443762376 -0.8995129528 -0.1608705553
C -2.4155270586 -2.2161557134 0.0921351251
C -1.0699494314 -2.5974216698 0.2685708183
C -4.3098488984 -0.6007716840 -0.3472941184
C -0.7288713688 -4.0321247642 0.5836468131
H -3.1802487121 -3.0012749490 0.1588114622
H -4.9561564628 -1.4256808528 0.0020961023
H -4.5802820013 0.3349333296 0.1796922983
H -4.5177078381 -0.4333645908 -1.4263738393
H -1.4467117594 -4.7397416880 0.1281398926
H 0.2968947107 -4.2691217322 0.2447008281
H -0.7642215604 -4.1856481302 1.6838882173
C 2.6924953020 1.8347129488 0.0423309480
C 1.7870959661 2.7014975477 -0.8502365192
H 3.7434004863 1.8226492614 -0.3114575640
H 2.6855778792 2.2012264216 1.0898764623
H 1.9477283549 3.7834866279 -0.6619973869
H 1.9955827713 2.5210682316 -1.9253969285
C 2.6909286555 -0.7140752334 1.5674091601
H 2.3131499978 -0.1979621482 2.4716991924
H 2.3279192066 -1.7600743689 1.5789718923
H 3.7994324327 -0.6981556626 1.5776076813
C 2.8195721132 -0.7924526465 -1.3355973516
H 2.3914689959 -1.8140366674 -1.3726864446
H 2.5915846588 -0.2881394287 -2.2950623846
H 3.9178777216 -0.8600084100 -1.2014630020
C -0.4445383307 3.3193078734 0.9380962528
C -1.8493085710 3.1159532105 1.5275491043
H 0.3407956233 3.1046605114 1.6934893149
H -0.2932651737 4.3747170748 0.6201375413
H -1.8732533250 3.4613677770 2.5793683818
H -2.1812942212 2.0549884362 1.4991524720
H -2.6059953176 3.7040613720 0.9744968869
C -0.8876235514 2.9942325837 -1.9888155363
C -2.4188534089 2.9444625800 -1.9690799001
H -0.4831970010 2.4495599619 -2.8708244309
H -0.4958268391 4.0331279796 -2.0824465988
H -2.8416859010 3.7434960240 -1.3308617413
H -2.7644793918 1.9680402945 -1.5830907147
H -2.8250864622 3.0853618351 -2.9895201798
45
step=25 E=-2725.232752347117 Eh
Co -0.1627735780 0.0846015762 -0.0983425180
P 2.0210767911 0.0991571290 0.0956461558
P -0.0191526951 2.2613497564 -0.5353373296
O -2.0588103764 0.1215196834 -0.2730337472
O -0.0676611576 -1.7893845949 0.2357479523
C -2.8447619301 -0.9046457937 -0.1715109145
C -2.4166579571 -2.2246742011 0.0681744786
C -1.0723172712 -2.6038243535 0.2624108429
C -4.3087686520 -0.5987423593 -0.3515410392
C -0.7298306565 -4.0388185699 0.5719422959
H -3.1766679693 -3.0144702607 0.1206435771
H -4.9544299546 -1.4701871681 -0.1439615137
H -4.6021971851 0.2451534216 0.3047681573
H -4.4936012604 -0.2634219646 -1.3946421233
H -1.4882929143 -4.7450890345 0.1864650792
H 0.2645293759 -4.2971827744 0.1607782550
H -0.6768110268 -4.1722365510 1.6743567596
C 2.6752649990 1.8405602784 0.0579035314
C 1.7786632972 2.6888815319 -0.8625572631
H 3.7336552698 1.8363464431 -0.2746328424
H 2.6477143291 2.2247419294 1.0989663935
H 1.9526961041 3.7719231381 -0.6921649064
H 1.9932346602 2.4813662163 -1.9316668257
C 2.6959099484 -0.6989460328 1.5994394842
H 2.3468097453 -0.1600433351 2.5018944110
H 2.3037198187 -1.7342430120 1.6333852150
H 3.8042315698 -0.7138986073 1.5891779387
C 2.8204462081 -0.7952977083 -1.2946944635
H 2.4213288791 -1.8294703139 -1.2980962946
H 2.5612570670 -0.3256183154 -2.2634970711
H 3.9223850025 -0.8315299248 -1.1776251708
C -0.4369616004 3.3405815486 0.9252204835
C -1.8009279808 3.0952047190 1.5785501077
H 0.3858277552 3.1763953773 1.6533756384
H -0.3372864567 4.3920285544 0.5761465190
H -1.8031635149 3.4801373231 2.6173529581
H -2.0624041038 2.0193947251 1.6036698905
H -2.6117119690 3.6202211158 1.0387053133
C -0.9020121852 2.9706955216 -2.0057217536
C -2.4377977151 2.9530450567 -1.9739559872
H -0.5171415438 2.3933619898 -2.8750661976
H -0.4928552585 4.0001461620 -2.1168533412
H -2.8338602421 3.7448715741 -1.3095091456
H -2.8048564451 1.9751514168 -1.6104562049
H -2.8479400032 3.1300053448 -2.9871575134
45
step=26 E=-2725.233306534368 Eh
Co -0.1660693418 0.0852774447 -0.0801964786
P 2.0195493750 0.0993453249 0.1224790842
P -0.0244075306 2.2595424842 -0.5300714349
O -2.0580501506 0.1205542960 -0.2664232697
O -0.0694692765 -1.7851886331 0.2546378192
C -2.8437370870 -0.9068869012 -0.1776228694
C -2.4152998746 -2.2283248743 0.0571015330
C -1.0720860791 -2.6041522394 0.2646160102
C -4.3078477091 -0.5995558361 -0.3508018031
C -0.7238752073 -4.0394562761 0.5618240423
H -3.1766267928 -3.0177233070 0.0984343275
H -4.9457825102 -1.4952609187 -0.2498266275
H -4.6213719007 0.1585385013 0.3963374728
H -4.4811519931 -0.1449193462 -1.3486444103
H -1.5135620476 -4.7407605076 0.2357021695
H 0.2374028371 -4.3107584580 0.0842682803
H -0.5899414026 -4.1636415869 1.6583872852
C 2.6637720151 1.8404823783 0.0735707072
C 1.7752907580 2.6746884930 -0.8623072411
H 3.7286317508 1.8519820679 -0.2397002479
H 2.6236601277 2.2344425412 1.1109361840
H 1.9639151350 3.7583852684 -0.7122240768
H 1.9866672869 2.4413551320 -1.9269427406
C 2.6912183422 -0.6927541145 1.6309780918
H 2.3643960809 -0.1347142753 2.5300906335
H 2.2732350294 -1.7172288914 1.6832137937
H 3.7982468698 -0.7375210523 1.6061547012
C 2.8106738059 -0.7929554477 -1.2747803676
H 2.4352228055 -1.8357913247 -1.2615416069
H 2.5242729596 -0.3381197462 -2.2429617198
H 3.9151218849 -0.8024904982 -1.1780312916
C -0.4427660033 3.3577921462 0.9146502787
C -1.7808747989 3.0869754752 1.6092228385
H 0.3977586841 3.2185321127 1.6286569528
H -0.3689685654 4.4063608720 0.5521040734
H -1.7764527399 3.5178326172 2.6301854076
H -1.9929901860 2.0026913537 1.6968046196
H -2.6265380150 3.5491973617 1.0656935929
C -0.8948908807 2.9445667967 -2.0241445126
C -2.4285867207 2.9588287633 -1.9702696469
H -0.5318623658 2.3229108194 -2.8711799553
H -0.4778974752 3.9646279334 -2.1733720455
H -2.8041182655 3.7440124368 -1.2858405576
H -2.8179037525 1.9832310379 -1.6235260092
H -2.8397137168 3.1699940492 -2.9767134429
45
step=27 E=-2725.233684886186 Eh
Co -0.1707225294 0.0921834348 -0.0671820170
P 2.0157971566 0.0980078836 0.1358333584
P -0.0265178491 2.2632699531 -0.5169000634
O -2.0608007457 0.1216444226 -0.2577455936
O -0.0738358005 -1.7768281909 0.2676866635
C -2.8469363835 -0.9056070663 -0.1742060900
C -2.4173471787 -2.2274034566 0.0606869888
C -1.0744071985 -2.6002466860 0.2709284047
C -4.3123272145 -0.6003971421 -0.3451223944
C -0.7186934621 -4.0362360676 0.5547543471
H -3.1783774965 -3.0175310821 0.0999515989
H -4.9409870515 -1.5079170295 -0.3079919032
H -4.6413882923 0.0979130893 0.4525927322
H -4.4806353728 -0.0803225005 -1.3103499665
H -1.5306787464 -4.7322700289 0.2764792991
H 0.2110189773 -4.3135181464 0.0206387027
H -0.5169549277 -4.1580919539 1.6408893814
C 2.6614438661 1.8363885979 0.0874173957
C 1.7735818337 2.6662899661 -0.8503601330
H 3.7305012094 1.8627738106 -0.2123952045
H 2.6170442010 2.2270714420 1.1264208236
H 1.9664372264 3.7513849204 -0.7155720274
H 1.9736937029 2.4195704167 -1.9143743263
C 2.6900375234 -0.6972679270 1.6410259716
H 2.3798335033 -0.1298612947 2.5399684612
H 2.2585871978 -1.7156102601 1.7022457346
H 3.7958211713 -0.7600675416 1.6030366777
C 2.8091370164 -0.7970850010 -1.2595989404
H 2.4478325856 -1.8442946653 -1.2416871281
H 2.5142091235 -0.3443644033 -2.2262407065
H 3.9142242718 -0.7864145357 -1.1695918952
C -0.4525794726 3.3717279717 0.9143723850
C -1.7809387520 3.0771201909 1.6171055070
H 0.3925349628 3.2442681031 1.6259065253
H -0.3930703968 4.4204088983 0.5501115401
H -1.7953842401 3.5414468889 2.6231255553
H -1.9458396598 1.9884705484 1.7428372295
H -2.6447989064 3.4793435286 1.0548196364
C -0.8828689651 2.9259430313 -2.0300483681
C -2.4142468593 2.9696691954 -1.9700004324
H -0.5365892409 2.2727825382 -2.8596486251
H -0.4579069175 3.9370929026 -2.2101920245
H -2.7769835098 3.7499350460 -1.2725677655
H -2.8312900075 1.9979662204 -1.6424307134
H -2.8185100538 3.2121817353 -2.9726021966
45
step=28 E=-2725.233927846125 Eh
Co -0.1737191502 0.0976577891 -0.0590464228
P 2.0126772296 0.0946163001 0.1432762080
P -0.0252145820 2.2647193257 -0.5059733983
O -2.0632572329 0.1222436023 -0.2550673474
O -0.0762621735 -1.7718709672 0.2783887197
C -2.8479371976 -0.9054356305 -0.1723057323
C -2.4174936790 -2.2264469123 0.0677750485
C -1.0753201153 -2.5981079038 0.2797235283
C -4.3138861079 -0.6030814515 -0.3467522592
C -0.7148893603 -4.0340841223 0.5583062987
H -3.1801861326 -3.0154938724 0.1027960568
H -4.9347672333 -1.5167622688 -0.3545947286
H -4.6572076379 0.0538302333 0.4798208122
H -4.4758255890 -0.0424254656 -1.2895809339
H -1.5439448866 -4.7266770342 0.3266572335
H 0.1837697634 -4.3197717236 -0.0230711508
H -0.4542823142 -4.1488986065 1.6322840768
C 2.6632884537 1.8330267597 0.0970461681
C 1.7751912219 2.6623748720 -0.8372618982
H 3.7336469906 1.8644284724 -0.1972944525
H 2.6162319043 2.2187770900 1.1381169237
H 1.9614046071 3.7500291445 -0.7143702367
H 1.9674146376 2.4114453123 -1.9018734011
C 2.6821198288 -0.7020392156 1.6499273436
H 2.3785364115 -0.1295946151 2.5478941233
H 2.2449583091 -1.7176166475 1.7140313191
H 3.7874200761 -0.7727995125 1.6094662392
C 2.8035332253 -0.7972374108 -1.2563954200
H 2.4458558070 -1.8453123209 -1.2429803784
H 2.5077218121 -0.3374920439 -2.2196351046
H 3.9085663946 -0.7785720494 -1.1681003795
C -0.4625719668 3.3789811257 0.9151517041
C -1.7848862870 3.0662755426 1.6233800664
H 0.3854706310 3.2681636677 1.6260732326
H -0.4207013823 4.4263903063 0.5446801145
H -1.8224000296 3.5688043928 2.6099747795
H -1.9091290486 1.9766982920 1.7894033427
H -2.6598640389 3.4083141314 1.0388625476
C -0.8710733968 2.9102641938 -2.0279367679
C -2.3989771928 2.9762525689 -1.9652103348
H -0.5373426541 2.2382158487 -2.8475096374
H -0.4362790191 3.9129606784 -2.2325499256
H -2.7516993255 3.7496242717 -1.2547815029
H -2.8302142747 2.0052865279 -1.6564832230
H -2.8018265409 3.2442930368 -2.9621261885
45
step=29 E=-2725.234118083894 Eh
Co -0.1748032377 0.1000267975 -0.0543759953
P 2.0110035003 0.0913758998 0.1462048137
P -0.0230346269 2.2639168344 -0.4958489977
O -2.0647122382 0.1224425936 -0.2580636184
O -0.0778850026 -1.7712037033 0.2850823899
C -2.8492081608 -0.9044127862 -0.1738779873
C -2.4192684128 -2.2244427618 0.0740723323
C -1.0780310414 -2.5962299227 0.2879298949
C -4.3154160287 -0.6034195146 -0.3523556203
C -0.7169648939 -4.0320344834 0.5672698850
H -3.1829271716 -3.0127112535 0.1081101709
H -4.9312485352 -1.5195559806 -0.3955830070
H -4.6703048603 0.0226445924 0.4931528693
H -4.4712157215 -0.0128390064 -1.2775013040
H -1.5622357311 -4.7202170470 0.3878049962
H 0.1464682134 -4.3329488121 -0.0588546958
H -0.3977200877 -4.1351088556 1.6261488762
C 2.6676738229 1.8298528794 0.1059842675
C 1.7768203174 2.6615222302 -0.8231876953
H 3.7379171977 1.8605443392 -0.1875154183
H 2.6180367684 2.2090015746 1.1495563061
H 1.9528583873 3.7519102301 -0.7099403462
H 1.9642185137 2.4124797342 -1.8893194339
C 2.6783094460 -0.7077169184 1.6524032952
H 2.3749010496 -0.1354957506 2.5505472318
H 2.2423818091 -1.7238415936 1.7141910208
H 3.7839269556 -0.7772213471 1.6136608716
C 2.8069386804 -0.8004670619 -1.2508134174
H 2.4474068773 -1.8477088663 -1.2435239602
H 2.5193077161 -0.3346154714 -2.2136819466
H 3.9113743324 -0.7814346928 -1.1553699154
C -0.4739215770 3.3810688116 0.9171824899
C -1.7910820984 3.0466899123 1.6263366734
H 0.3769203478 3.2948889260 1.6277857015
H -0.4571941736 4.4259403849 0.5370798403
H -1.8588678618 3.5911978175 2.5883748286
H -1.8742941222 1.9605164083 1.8364419676
H -2.6726267155 3.3230723025 1.0174514392
C -0.8664345115 2.8998046006 -2.0190935952
C -2.3928441278 2.9846714208 -1.9587852452
H -0.5421017817 2.2183547071 -2.8350242194
H -0.4182073607 3.8943234257 -2.2380681439
H -2.7367441270 3.7502993261 -1.2357030477
H -2.8387748351 2.0140930429 -1.6691874830
H -2.7917447305 3.2762469073 -2.9507240337
45
step=30 E=-2725.234261955877 Eh
Co -0.1753062567 0.0973144340 -0.0537981737
P 2.0101021080 0.0890061029 0.1474758160
P -0.0225957400 2.2606134581 -0.4920392679
O -2.0649589434 0.1206728941 -0.2678473710
O -0.0795831284 -1.7751111662 0.2894551843
C -2.8490555965 -0.9053396465 -0.1800836592
C -2.4209261906 -2.2240060181 0.0781502050
C -1.0812605421 -2.5975846910 0.2966036672
C -4.3149749881 -0.6052018099 -0.3627940214
C -0.7229748214 -4.0328114173 0.5831619560
H -3.1850982125 -3.0115606240 0.1127608572
H -4.9276588037 -1.5218440648 -0.4303484218
H -4.6781729209 0.0008787760 0.4937885854
H -4.4664837796 0.0055950966 -1.2753739333
H -1.5815263307 -4.7157989731 0.4551717559
H 0.1057462389 -4.3539035811 -0.0794704104
H -0.3519113671 -4.1211634655 1.6260762753
C 2.6692776410 1.8286644739 0.1104847419
C 1.7764693271 2.6619425707 -0.8151608394
H 3.7380159418 1.8545703244 -0.1872250994
H 2.6183216344 2.2054490570 1.1547484923
H 1.9469313409 3.7538972616 -0.7093070015
H 1.9642815893 2.4150764702 -1.8820074519
C 2.6725826078 -0.7094585673 1.6561749685
H 2.3609274766 -0.1404903145 2.5536074732
H 2.2423475125 -1.7282471084 1.7128544544
H 3.7790041276 -0.7712272680 1.6256273481
C 2.8110713130 -0.8018918939 -1.2465947993
H 2.4450970337 -1.8470259784 -1.2454993479
H 2.5340244628 -0.3320187048 -2.2106135771
H 3.9147148140 -0.7909141852 -1.1414134108
C -0.4853365079 3.3774161808 0.9181409996
C -1.7937754341 3.0203907396 1.6335186843
H 0.3688314826 3.3195029171 1.6270791273
H -0.4968089561 4.4182231999 0.5265231197
H -1.8901987877 3.6025803953 2.5706283901
H -1.8356165823 1.9408316984 1.8876745976
H -2.6811068226 3.2351367901 1.0083285803
C -0.8660682779 2.8981672844 -2.0118237915
C -2.3906505245 2.9970753049 -1.9514950072
H -0.5476518142 2.2160268586 -2.8298603819
H -0.4056374270 3.8870744536 -2.2332791550
H -2.7265385004 3.7532393560 -1.2148998145
H -2.8409614387 2.0249530768 -1.6790587247
H -2.7885012527 3.3082526283 -2.9377119262
45
step=31 E=-2725.234394871615 Eh
Co -0.1731092333 0.0902071192 -0.0573490556
P 2.0124707831 0.0854207606 0.1464268156
P -0.0226107630 2.2547801888 -0.4901613129
O -2.0618041893 0.1186982294 -0.2838544677
O -0.0808487285 -1.7819872919 0.2908048080
C -2.8482838937 -0.9043219448 -0.1892482253
C -2.4249014319 -2.2215759651 0.0838706167
C -1.0866814799 -2.5983558407 0.3069519139
C -4.3133246379 -0.6032826000 -0.3779804897
C -0.7346843790 -4.0331646836 0.6035196205
H -3.1912792383 -3.0063935091 0.1251030678
H -4.9262549395 -1.5194845753 -0.4493111479
H -4.6801158841 0.0015395579 0.4780634894
H -4.4619642982 0.0092061568 -1.2898591428
H -1.6060168641 -4.7075312626 0.5266684373
H 0.0571039335 -4.3784416225 -0.0919939698
H -0.3147591990 -4.1078725074 1.6284883522
C 2.6695426994 1.8273844487 0.1146435005
C 1.7744324385 2.6630249359 -0.8078791118
H 3.7361656286 1.8493981897 -0.1897374686
H 2.6190619511 2.2015965719 1.1596487181
H 1.9433207226 3.7556453489 -0.7062824391
H 1.9648099118 2.4189310769 -1.8753329884
C 2.6703010749 -0.7120159392 1.6578836703
H 2.3419382462 -0.1515165788 2.5547423796
H 2.2520382521 -1.7362592178 1.7055063080
H 3.7777561419 -0.7586170553 1.6398547988
C 2.8222725567 -0.8036812271 -1.2428205919
H 2.4466238717 -1.8456144289 -1.2505489813
H 2.5605521379 -0.3290880943 -2.2087328885
H 3.9245526658 -0.8063075926 -1.1235274126
C -0.4979827533 3.3660213866 0.9213461603
C -1.8003837201 2.9890351537 1.6376026768
H 0.3575175536 3.3316096191 1.6296707973
H -0.5343628164 4.4033539834 0.5218914062
H -1.9278399431 3.6076506012 2.5474067574
H -1.8079083144 1.9217490532 1.9388726563
H -2.6883463773 3.1449979528 0.9961102232
C -0.8713369611 2.8999717781 -2.0037893174
C -2.3957996508 3.0093830059 -1.9421386445
H -0.5583400042 2.2192813822 -2.8253345294
H -0.4014078462 3.8849977887 -2.2238125333
H -2.7244476340 3.7601673290 -1.1969863049
H -2.8548971945 2.0377729357 -1.6802031392
H -2.7904598666 3.3331593453 -2.9253473612
45
step=32 E=-2725.234508082799 Eh
Co -0.1740339626 0.0810342868 -0.0630324461
P 2.0117785952 0.0838693512 0.1470921814
P -0.0275652138 2.2480409208 -0.4936241401
O -2.0604962596 0.1131048569 -0.3047254103
O -0.0860074701 -1.7887838772 0.2935438558
C -2.8498729357 -0.9066262693 -0.2010582399
C -2.4315643634 -2.2213458780 0.0910717835
C -1.0948102060 -2.6004781315 0.3202610752
C -4.3132312989 -0.6043229924 -0.3996288692
C -0.7480000140 -4.0337758298 0.6297467926
H -3.1993246196 -3.0038495840 0.1421129071
H -4.9268162027 -1.5195603945 -0.4761977746
H -4.6849885399 -0.0005526322 0.4552585815
H -4.4562503849 0.0108612693 -1.3105750386
H -1.6307144176 -4.6972918294 0.6130341569
H -0.0004565755 -4.4062215149 -0.1004722196
H -0.2723733860 -4.0931713193 1.6308427659
C 2.6641051850 1.8279239966 0.1145932281
C 1.7672147665 2.6623466579 -0.8081674996
H 3.7285160585 1.8475094309 -0.1975420669
H 2.6173623747 2.2041897878 1.1587494268
H 1.9379452955 3.7548464424 -0.7086119928
H 1.9614952707 2.4171184686 -1.8749042684
C 2.6636423032 -0.7080260007 1.6640468107
H 2.3138289636 -0.1562877623 2.5582613072
H 2.2599639418 -1.7385105327 1.7035317572
H 3.7717796753 -0.7370385015 1.6610479940
C 2.8314224610 -0.8062766557 -1.2348229787
H 2.4449426778 -1.8444969106 -1.2498509067
H 2.5857907140 -0.3288699767 -2.2034640686
H 3.9318986485 -0.8241472010 -1.1010672408
C -0.5095561082 3.3517962749 0.9230080728
C -1.7929662173 2.9384100969 1.6509047777
H 0.3518188753 3.3474628978 1.6247237575
H -0.5796863577 4.3849480813 0.5173337287
H -1.9562842120 3.5844089302 2.5359451006
H -1.7420067436 1.8859691119 1.9966102549
H -2.6861688080 3.0241371072 1.0034762580
C -0.8798160616 2.9100568203 -2.0003636713
C -2.4035681592 3.0296801983 -1.9326997128
H -0.5718045561 2.2366292868 -2.8296785006
H -0.4037252720 3.8943259043 -2.2092793649
H -2.7243782519 3.7716402498 -1.1753534484
H -2.8644697369 2.0569343997 -1.6844905555
H -2.7989319458 3.3693189671 -2.9101572482
45
step=33 E=-2725.234578071394 Eh
Co -0.1723911867 0.0684418318 -0.0787806459
P 2.0135482092 0.0814320669 0.1407992644
P -0.0317870012 2.2380501217 -0.5034327622
O -2.0562553955 0.1062454233 -0.3335884911
O -0.0911438224 -1.7967611574 0.2907331086
C -2.8509357251 -0.9079181268 -0.2140398392
C -2.4399033826 -2.2190684154 0.1028483878
C -1.1041718822 -2.6020228615 0.3343663684
C -4.3122010983 -0.6039439676 -0.4252820653
C -0.7647205549 -4.0341772285 0.6575529235
H -3.2113638329 -2.9964284533 0.1717725743
H -4.9339354706 -1.5168497218 -0.4461066898
H -4.6756711449 0.0525911378 0.3933618762
H -4.4537735443 -0.0436484944 -1.3712772740
H -1.6550474751 -4.6878635373 0.6700688254
H -0.0408437878 -4.4259907041 -0.0865566966
H -0.2652993727 -4.0857462144 1.6470647641
C 2.6572371523 1.8287742360 0.1127726379
C 1.7597766441 2.6627298246 -0.8103995030
H 3.7198734239 1.8500729394 -0.2060923417
H 2.6156364211 2.2048688414 1.1569144266
H 1.9304810528 3.7546839245 -0.7051037957
H 1.9611150710 2.4191590920 -1.8763223934
C 2.6602014244 -0.7077555350 1.6613735417
H 2.2812911105 -0.1725471719 2.5537729384
H 2.2790665840 -1.7473081388 1.6872099652
H 3.7685056640 -0.7113711149 1.6765295680
C 2.8473281246 -0.8044006810 -1.2350037229
H 2.4490338626 -1.8381395330 -1.2645076118
H 2.6219099212 -0.3182876552 -2.2041354830
H 3.9451251477 -0.8391872324 -1.0836062589
C -0.5214437727 3.3230744637 0.9277134208
C -1.8083361884 2.9167223887 1.6563285869
H 0.3385304034 3.3099275679 1.6309737000
H -0.5888728906 4.3594152618 0.5301001467
H -1.9811749910 3.5901966010 2.5193168634
H -1.7622882382 1.8794156998 2.0443955460
H -2.6974564991 2.9775339534 1.0005536706
C -0.8880716958 2.9129265431 -2.0022608059
C -2.4092549037 3.0390940327 -1.9200680806
H -0.5895203988 2.2397260878 -2.8348960834
H -0.4109701578 3.8963747469 -2.2103712703
H -2.7204212035 3.7896570453 -1.1671877840
H -2.8766112740 2.0716109946 -1.6595843296
H -2.8085309759 3.3711553430 -2.8984880579
45
step=34 E=-2725.234659510971 Eh
Co -0.1752434642 0.0666551692 -0.0844807587
P 2.0102978103 0.0805025742 0.1412016048
P -0.0365363288 2.2367585369 -0.5062769916
O -2.0577809857 0.1031547107 -0.3440837244
O -0.0961480661 -1.7956527944 0.2908595481
C -2.8548130839 -0.9090432817 -0.2179532856
C -2.4459074004 -2.2180513798 0.1100084944
C -1.1097276999 -2.6004330034 0.3410297910
C -4.3143726073 -0.6040960462 -0.4386123231
C -0.7694518407 -4.0313730275 0.6680941773
H -3.2195562757 -2.9927408713 0.1857568114
H -4.9395521124 -1.5148603661 -0.4428025010
H -4.6771000346 0.0707058287 0.3653262539
H -4.4503023158 -0.0628258915 -1.3965080130
H -1.6619549251 -4.6814360780 0.6991976201
H -0.0597070118 -4.4295552532 -0.0862371259
H -0.2529531934 -4.0788876581 1.6489453871
C 2.6505894112 1.8289324297 0.1104345767
C 1.7537269351 2.6620185872 -0.8142482765
H 3.7136604403 1.8535851824 -0.2077058763
H 2.6126269870 2.2061756051 1.1543409138
H 1.9252256064 3.7532135376 -0.7021938326
H 1.9561579077 2.4182882170 -1.8796728580
C 2.6527493251 -0.7037171028 1.6663902123
H 2.2631400996 -0.1719328621 2.5562108103
H 2.2796409434 -1.7462470597 1.6902978125
H 3.7608726109 -0.6994600598 1.6881228686
C 2.8469013836 -0.8062130289 -1.2329009360
H 2.4448712112 -1.8382733613 -1.2670940795
H 2.6280295131 -0.3157348876 -2.2014102641
H 3.9438886298 -0.8444740363 -1.0768433990
C -0.5189081596 3.3159569909 0.9311400059
C -1.7935718766 2.8844401957 1.6611528383
H 0.3477895801 3.3073780614 1.6264237755
H -0.5980407654 4.3545865566 0.5417275463
H -1.9827914804 3.5504745077 2.5265361936
H -1.7094085057 1.8501835320 2.0454899911
H -2.6854445604 2.9216709229 1.0074540194
C -0.8980533143 2.9217775604 -2.0015174563
C -2.4224746279 3.0453997917 -1.9182370297
H -0.6002099742 2.2551984364 -2.8393964657
H -0.4254079015 3.9091797730 -2.1998087215
H -2.7336807938 3.7966276493 -1.1658934945
H -2.8932025902 2.0775407122 -1.6588640934
H -2.8227905931 3.3774458121 -2.8964571586
45
step=35 E=-2725.234716379056 Eh
Co -0.1807571772 0.0689736134 -0.0877342704
P 2.0032160894 0.0825171619 0.1425739555
P -0.0414875863 2.2379104069 -0.5120400216
O -2.0633114782 0.0993696752 -0.3476216901
O -0.0997382236 -1.7921162351 0.2926864340
C -2.8593673146 -0.9138685907 -0.2200089217
C -2.4479899224 -2.2215797137 0.1098897592
C -1.1110616495 -2.6004727855 0.3411153493
C -4.3184642575 -0.6100712617 -0.4451232613
C -0.7661149903 -4.0296949829 0.6700634816
H -3.2203565649 -2.9977260981 0.1857066333
H -4.9446205861 -1.5200305567 -0.4436898492
H -4.6817700355 0.0725588854 0.3517985299
H -4.4505016157 -0.0764876047 -1.4080051776
H -1.6562395906 -4.6828590167 0.7004135820
H -0.0524981225 -4.4246526365 -0.0821704208
H -0.2511731552 -4.0740135796 1.6520511016
C 2.6449067735 1.8298397820 0.1069151670
C 1.7497926313 2.6605700402 -0.8220120298
H 3.7097020243 1.8559194724 -0.2058503408
H 2.6060212404 2.2099007122 1.1499012578
H 1.9196660510 3.7515130601 -0.7053730539
H 1.9529586435 2.4162312189 -1.8867462286
C 2.6461998446 -0.6986496072 1.6688894372
H 2.2596571676 -0.1631545259 2.5577810785
H 2.2716443289 -1.7405295216 1.6963394350
H 3.7544211376 -0.6969265257 1.6879409283
C 2.8402062913 -0.8084278633 -1.2292553093
H 2.4410663619 -1.8414827819 -1.2602684354
H 2.6192740340 -0.3193658281 -2.1980796692
H 3.9376533570 -0.8406907427 -1.0751499380
C -0.5160006834 3.3157144320 0.9275591690
C -1.7809091745 2.8776021586 1.6708112275
H 0.3569637883 3.3059939534 1.6152379321
H -0.5978884276 4.3557434314 0.5423308063
H -1.9617187056 3.5386623327 2.5416219162
H -1.6897108315 1.8393659275 2.0500357011
H -2.6799409369 2.9149684506 1.0270246538
C -0.9009005833 2.9242565058 -2.0067733305
C -2.4237786584 3.0483438496 -1.9174078004
H -0.6057871224 2.2584668534 -2.8461519076
H -0.4300866045 3.9125489621 -2.2049082038
H -2.7332653607 3.8004454879 -1.1650645761
H -2.8892044254 2.0804441611 -1.6547136492
H -2.8299759664 3.3795970650 -2.8936784811
45
step=36 E=-2725.234751450797 Eh
Co -0.1850148438 0.0694345968 -0.0939891472
P 1.9972640939 0.0830635060 0.1412527619
P -0.0446410007 2.2371961092 -0.5158645305
O -2.0674339056 0.0965598778 -0.3557328243
O -0.1034485197 -1.7908400479 0.2931969985
C -2.8630435781 -0.9166379729 -0.2237480640
C -2.4510636304 -2.2227280996 0.1117134654
C -1.1140851059 -2.6004086667 0.3432300320
C -4.3217525294 -0.6144021618 -0.4534699134
C -0.7675708474 -4.0286627621 0.6748320621
H -3.2234055864 -2.9989169938 0.1892361867
H -4.9512293875 -1.5215474172 -0.4224843414
H -4.6802760100 0.0954026200 0.3212475664
H -4.4532515742 -0.1123119651 -1.4333804538
H -1.6567853650 -4.6831090933 0.7039375445
H -0.0515326605 -4.4229776844 -0.0754134779
H -0.2548491326 -4.0708483636 1.6580352724
C 2.6399523516 1.8300812171 0.1057064208
C 1.7468947301 2.6608484775 -0.8244575577
H 3.7063620807 1.8574464621 -0.2014853037
H 2.5982876571 2.2099081494 1.1487931556
H 1.9141372750 3.7514788871 -0.7014732356
H 1.9524105211 2.4199118645 -1.8892672025
C 2.6394553023 -0.6972362887 1.6681986504
H 2.2519541798 -0.1620159976 2.5568158896
H 2.2672750373 -1.7399087600 1.6952547910
H 3.7477157266 -0.6934884437 1.6877419058
C 2.8362018544 -0.8074415969 -1.2300875422
H 2.4387166307 -1.8408900869 -1.2629854837
H 2.6163989711 -0.3159133033 -2.1979896965
H 3.9336083707 -0.8362986220 -1.0749907898
C -0.5166636711 3.3097252306 0.9289563876
C -1.7811252059 2.8749595284 1.6755348971
H 0.3584987506 3.2912894463 1.6137932966
H -0.5950192664 4.3527727598 0.5512695357
H -1.9580885093 3.5367933935 2.5464441283
H -1.6919109815 1.8364579251 2.0535865819
H -2.6812592666 2.9129252873 1.0332502452
C -0.9045541595 2.9216003641 -2.0094875995
C -2.4268172850 3.0469016580 -1.9168084979
H -0.6133693990 2.2529887393 -2.8480050943
H -0.4333599531 3.9088283354 -2.2123908666
H -2.7337636300 3.8050107734 -1.1693932274
H -2.8922487582 2.0810408933 -1.6455206909
H -2.8363955484 3.3712240043 -2.8940316060
45
step=37 E=-2725.234779545885 Eh
Co -0.1899388752 0.0687385412 -0.1004134509
P 1.9906898348 0.0822065726 0.1406925541
P -0.0497231604 2.2359671153 -0.5190346495
O -2.0718124228 0.0932257161 -0.3679961499
O -0.1079259703 -1.7907073088 0.2956179785
C -2.8672607841 -0.9193728940 -0.2308895035
C -2.4555571348 -2.2232541643 0.1135317821
C -1.1189054424 -2.5998745056 0.3481598807
C -4.3252109667 -0.6194723974 -0.4681981120
C -0.7725493531 -4.0267324095 0.6857821058
H -3.2283142476 -2.9989143165 0.1933864811
H -4.9580087196 -1.5228172627 -0.4079862553
H -4.6802353184 0.1176743185 0.2818841361
H -4.4552194387 -0.1502754400 -1.4647135832
H -1.6628610739 -4.6788812843 0.7289589952
H -0.0662400324 -4.4280732735 -0.0700905408
H -0.2484128135 -4.0635513948 1.6630587410
C 2.6337031889 1.8292439561 0.1052837817
C 1.7420495715 2.6616197940 -0.8252896779
H 3.7012751431 1.8562973191 -0.1975522755
H 2.5885190108 2.2083417520 1.1485870230
H 1.9070513533 3.7519566452 -0.6963718532
H 1.9499433506 2.4258761874 -1.8907115982
C 2.6312930611 -0.6961893903 1.6693153192
H 2.2401212584 -0.1624073197 2.5571854138
H 2.2636219873 -1.7404289467 1.6952410687
H 3.7395220677 -0.6875959217 1.6915047220
C 2.8321470364 -0.8089600953 -1.2289751522
H 2.4345263716 -1.8421764844 -1.2642552193
H 2.6159474025 -0.3154065577 -2.1967012921
H 3.9291445963 -0.8374671813 -1.0707893675
C -0.5237596545 3.3021666955 0.9295641324
C -1.7803536054 2.8548905375 1.6825627987
H 0.3552006219 3.2898908324 1.6096484975
H -0.6137846781 4.3454607143 0.5551828993
H -1.9671320591 3.5247523237 2.5451384415
H -1.6749472397 1.8217439306 2.0729765377
H -2.6813116944 2.8697881550 1.0403692437
C -0.9113492094 2.9225714621 -2.0096984602
C -2.4333055343 3.0506662122 -1.9140828844
H -0.6234436739 2.2537538027 -2.8492855419
H -0.4375350804 3.9084000152 -2.2140162701
H -2.7372674613 3.8111162888 -1.1677607371
H -2.8997275867 2.0861901313 -1.6388416933
H -2.8446162016 3.3733221823 -2.8911027308
45
step=38 E=-2725.234803588023 Eh
Co -0.1949716694 0.0679100244 -0.1034526822
P 1.9846280501 0.0822825035 0.1412159294
P -0.0546314943 2.2348463057 -0.5197051075
O -2.0764156551 0.0907203827 -0.3764625453
O -0.1124283010 -1.7913712545 0.2993703995
C -2.8713166546 -0.9218409053 -0.2378897625
C -2.4598568519 -2.2244372347 0.1117069485
C -1.1237736583 -2.6000185613 0.3511869763
C -4.3286541334 -0.6241437288 -0.4814806364
C -0.7786592064 -4.0259448378 0.6939421263
H -3.2320563591 -3.0006187436 0.1913547516
H -4.9644144707 -1.5232343076 -0.3950672901
H -4.6801502364 0.1366719869 0.2460322140
H -4.4584078996 -0.1845104339 -1.4916673697
H -1.6700920275 -4.6758688273 0.7470300262
H -0.0795320315 -4.4336210752 -0.0653459925
H -0.2469387816 -4.0589331514 1.6671574619
C 2.6282805585 1.8288689422 0.1067455537
C 1.7378114123 2.6630308644 -0.8231476812
H 3.6967893559 1.8553103523 -0.1923146504
H 2.5783401133 2.2070319235 1.1502463821
H 1.9016448449 3.7530641448 -0.6899335380
H 1.9475534765 2.4325166443 -1.8893783388
C 2.6255829248 -0.6959880287 1.6697160297
H 2.2344923387 -0.1625991260 2.5578681751
H 2.2590544736 -1.7405871546 1.6953704070
H 3.7338255122 -0.6858097614 1.6918229595
C 2.8268430967 -0.8086976729 -1.2281052435
H 2.4312169859 -1.8426852289 -1.2628138911
H 2.6099812480 -0.3160526507 -2.1961437518
H 3.9239300801 -0.8354162825 -1.0699489598
C -0.5334375165 3.2981890629 0.9300377603
C -1.7824692161 2.8385711253 1.6884833071
H 0.3482403656 3.2974320866 1.6066147771
H -0.6377143774 4.3396535088 0.5544575835
H -1.9806492163 3.5151098179 2.5432350535
H -1.6596727510 1.8119573600 2.0897767031
H -2.6834700641 2.8313283699 1.0460481627
C -0.9171005981 2.9211841485 -2.0097999843
C -2.4391521750 3.0505292960 -1.9135050534
H -0.6301110802 2.2515567353 -2.8491996083
H -0.4409871677 3.9056022685 -2.2160247454
H -2.7415956947 3.8113745151 -1.1669102963
H -2.9049187561 2.0859907562 -1.6368280433
H -2.8511398889 3.3723696106 -2.8903943245
45
step=39 E=-2725.234826802087 Eh
Co -0.2004577904 0.0670518784 -0.1028715058
P 1.9789889688 0.0818301012 0.1430706020
P -0.0609199563 2.2340879995 -0.5186893816
O -2.0812934513 0.0887324197 -0.3808468338
O -0.1174689934 -1.7920759330 0.3051839604
C -2.8753063049 -0.9244996867 -0.2444766309
C -2.4639411551 -2.2264596081 0.1075317205
C -1.1286086777 -2.6008870389 0.3536578232
C -4.3317836214 -0.6292876044 -0.4956642539
C -0.7849124575 -4.0262360414 0.7003137270
H -3.2355453525 -3.0034001086 0.1849572442
H -4.9706201298 -1.5231729032 -0.3825302978
H -4.6800389201 0.1553021552 0.2075006094
H -4.4609432498 -0.2206989980 -1.5191372912
H -1.6771487644 -4.6747374254 0.7579286775
H -0.0891005778 -4.4382471160 -0.0597814540
H -0.2503615674 -4.0569524171 1.6719771122
C 2.6222779150 1.8281701894 0.1098776962
C 1.7326917652 2.6646350260 -0.8189359078
H 3.6914860183 1.8546722870 -0.1862005270
H 2.5676490829 2.2049941589 1.1536982448
H 1.8959168367 3.7543764501 -0.6822634417
H 1.9431383189 2.4391089024 -1.8861887735
C 2.6218535147 -0.6975704506 1.6702524302
H 2.2341115935 -0.1633643617 2.5593982457
H 2.2531176720 -1.7413604675 1.6969030054
H 3.7301452496 -0.6893382592 1.6896730110
C 2.8192338445 -0.8080922002 -1.2281290330
H 2.4277371538 -1.8438136062 -1.2595962416
H 2.5969161036 -0.3186137258 -2.1965142844
H 3.9169964404 -0.8311607091 -1.0738832155
C -0.5470302990 3.2974665882 0.9289063376
C -1.7871708148 2.8228235674 1.6927726817
H 0.3368460647 3.3144955462 1.6022469488
H -0.6694019130 4.3349321990 0.5479131674
H -1.9965793053 3.5040480464 2.5411377752
H -1.6467319596 1.8025813547 2.1040935192
H -2.6884117721 2.7947858756 1.0511300880
C -0.9229723969 2.9196214165 -2.0099272007
C -2.4454047024 3.0484481860 -1.9146577561
H -0.6344256939 2.2497835782 -2.8486885621
H -0.4459689716 3.9035991521 -2.2164092462
H -2.7481014864 3.8081499814 -1.1669926518
H -2.9109801279 2.0833874791 -1.6386202661
H -2.8565336396 3.3707216738 -2.8916708868
45
step=40 E=-2725.234846549884 Eh
Co -0.2061384375 0.0653831243 -0.0979297012
P 1.9739832228 0.0819495569 0.1462733181
P -0.0681840862 2.2324893577 -0.5159535326
O -2.0862489450 0.0865114691 -0.3799859840
O -0.1233902225 -1.7931730209 0.3129172268
C -2.8796469042 -0.9277962826 -0.2496450169
C -2.4684150249 -2.2298827771 0.1019200973
C -1.1338597023 -2.6027627970 0.3554940515
C -4.3349937791 -0.6344914872 -0.5094521460
C -0.7910236030 -4.0278183823 0.7042086033
H -3.2391419323 -3.0079350248 0.1756757938
H -4.9769063242 -1.5229603973 -0.3735127240
H -4.6810406652 0.1704879020 0.1711654895
H -4.4622126262 -0.2538567184 -1.5440912481
H -1.6835481093 -4.6760406930 0.7607705927
H -0.0942989432 -4.4410463914 -0.0544379873
H -0.2581021249 -4.0579032017 1.6767584261
C 2.6157894020 1.8283904249 0.1154335068
C 1.7266604935 2.6656645209 -0.8126971290
H 3.6854516050 1.8567594521 -0.1787225295
H 2.5574629898 2.2037877689 1.1596019777
H 1.8892047327 3.7553277595 -0.6746569880
H 1.9373284319 2.4426259914 -1.8805195371
C 2.6208819849 -0.7007018503 1.6699920388
H 2.2400163187 -0.1647904660 2.5610909048
H 2.2464246548 -1.7424399701 1.6983219095
H 3.7292419820 -0.6983376033 1.6838624470
C 2.8112018601 -0.8050014832 -1.2285697760
H 2.4266402728 -1.8435681095 -1.2544772309
H 2.5784844666 -0.3206479173 -2.1970461810
H 3.9101469660 -0.8213035624 -1.0819186258
C -0.5628786870 3.2993840578 0.9268605921
C -1.7949877237 2.8130538341 1.6957296567
H 0.3220141644 3.3353816346 1.5979866544
H -0.7017515013 4.3315626875 0.5373901088
H -2.0127786083 3.4969174714 2.5399895388
H -1.6394629142 1.7986436995 2.1145874415
H -2.6967940318 2.7690212120 1.0557227261
C -0.9276096639 2.9144864282 -2.0112291095
C -2.4502232909 3.0434348673 -1.9177859215
H -0.6373227228 2.2426797913 -2.8477707047
H -0.4504548037 3.8980831197 -2.2188777833
H -2.7534937894 3.8011828850 -1.1683419039
H -2.9162195270 2.0777947436 -1.6446543258
H -2.8599542232 3.3678713361 -2.8946316164
45
step=41 E=-2725.234859670010 Eh
Co -0.2105255581 0.0639013020 -0.0911945222
P 1.9707289522 0.0815838739 0.1489352124
P -0.0745925588 2.2311206695 -0.5128383177
O -2.0900132625 0.0847867250 -0.3750211583
O -0.1284333903 -1.7938754150 0.3194452598
C -2.8828590491 -0.9308588075 -0.2517443246
C -2.4715802643 -2.2334303718 0.0977085791
C -1.1376416424 -2.6050817289 0.3567339604
C -4.3369849713 -0.6389280885 -0.5198135728
C -0.7945813155 -4.0301357400 0.7053946098
H -3.2419031498 -3.0122370190 0.1677119682
H -4.9814677112 -1.5226719907 -0.3662444536
H -4.6818867873 0.1819358257 0.1418921421
H -4.4612220561 -0.2815065264 -1.5632019177
H -1.6863116673 -4.6801539652 0.7531996952
H -0.0906622453 -4.4401732929 -0.0482729284
H -0.2699022909 -4.0612263594 1.6823994590
C 2.6102054117 1.8288372704 0.1214153981
C 1.7210127351 2.6661145027 -0.8064787484
H 3.6798994937 1.8600431814 -0.1725965054
H 2.5510316924 2.2024639300 1.1661653364
H 1.8825831652 3.7559083899 -0.6686212143
H 1.9316892158 2.4430782600 -1.8743312761
C 2.6213736979 -0.7054073295 1.6687872915
H 2.2477032998 -0.1679086488 2.5619793624
H 2.2404021290 -1.7447958025 1.6984427078
H 3.7297357103 -0.7101140103 1.6771029848
C 2.8046520251 -0.8009216959 -1.2307922876
H 2.4269026500 -1.8421547641 -1.2523471889
H 2.5612273884 -0.3203267020 -2.1984848737
H 3.9046998018 -0.8100575367 -1.0921739701
C -0.5762859859 3.3027874661 0.9242007377
C -1.8050533815 2.8120512426 1.6953714608
H 0.3083364791 3.3506361672 1.5948817799
H -0.7233207828 4.3310100824 0.5273125700
H -2.0239593554 3.4956088502 2.5396921524
H -1.6451955194 1.7991452064 2.1160125434
H -2.7078629413 2.7642804106 1.0570785535
C -0.9302524428 2.9087023425 -2.0127512840
C -2.4529037917 3.0370494126 -1.9216880803
H -0.6380432772 2.2349626136 -2.8469224383
H -0.4543622029 3.8926648895 -2.2210872509
H -2.7577463300 3.7933574107 -1.1714120638
H -2.9203134735 2.0711814616 -1.6515825639
H -2.8609304618 3.3635731685 -2.8986065221
45
step=42 E=-2725.234866583950 Eh
Co -0.2133519412 0.0622389261 -0.0862614909
P 1.9685988245 0.0814414675 0.1505359103
P -0.0791267993 2.2293454207 -0.5107610563
O -2.0924232482 0.0828682021 -0.3712930117
O -0.1319451569 -1.7947239670 0.3231166395
C -2.8852913857 -0.9334673049 -0.2523691183
C -2.4741395874 -2.2362232546 0.0964371664
C -1.1404467308 -2.6069453909 0.3579570285
C -4.3384723273 -0.6420632414 -0.5263526150
C -0.7965385913 -4.0317932276 0.7065591958
H -3.2443491582 -3.0153221323 0.1646647727
H -4.9845289608 -1.5232385222 -0.3646193156
H -4.6835471833 0.1868262801 0.1249794902
H -4.4594614679 -0.2970347563 -1.5743399978
H -1.6874362420 -4.6832518645 0.7491804050
H -0.0879107960 -4.4392195055 -0.0440591452
H -0.2766581459 -4.0631410005 1.6861497708
C 2.6056972411 1.8298122399 0.1263432238
C 1.7162628824 2.6658503958 -0.8022485269
H 3.6752490514 1.8635305588 -0.1683023962
H 2.5473334208 2.2021149631 1.1715649826
H 1.8764920460 3.7559547727 -0.6656637237
H 1.9279983206 2.4409637414 -1.8694774417
C 2.6213292994 -0.7089948404 1.6676231314
H 2.2515777321 -0.1711035657 2.5622005244
H 2.2366373211 -1.7470436492 1.6972324166
H 3.7296671387 -0.7179042679 1.6730862344
C 2.8021210021 -0.7968353257 -1.2321800499
H 2.4287518778 -1.8396802681 -1.2524963343
H 2.5529163267 -0.3173646261 -2.1989592080
H 3.9026581983 -0.8009013652 -1.0975087718
C -0.5844737087 3.3041933749 0.9226956762
C -1.8125390545 2.8134398491 1.6945620262
H 0.2996006376 3.3557946657 1.5938423375
H -0.7328790633 4.3309103123 0.5223734303
H -2.0310407826 3.4966378717 2.5393068192
H -1.6513812468 1.8008352079 2.1153218852
H -2.7157664506 2.7647833804 1.0569602188
C -0.9318280487 2.9033112992 -2.0140384667
C -2.4542926527 3.0328723919 -1.9244467672
H -0.6397505886 2.2274982494 -2.8464626320
H -0.4562498162 3.8871128055 -2.2235436650
H -2.7596523655 3.7880596662 -1.1732092005
H -2.9232959210 2.0670689510 -1.6575795960
H -2.8611334667 3.3622533503 -2.9009847911
45
step=43 E=-2725.234870406857 Eh
Co -0.2152191392 0.0612370865 -0.0841867727
P 1.9669206206 0.0811212115 0.1507693030
P -0.0820011457 2.2282942004 -0.5099131714
O -2.0941450547 0.0813797618 -0.3697996425
O -0.1338287416 -1.7954819994 0.3237512050
C -2.8868380763 -0.9354461583 -0.2525175416
C -2.4756011807 -2.2380857957 0.0965440076
C -1.1419449068 -2.6083565740 0.3584741837
C -4.3394548684 -0.6446177863 -0.5300999240
C -0.7973132435 -4.0329466051 0.7074001814
H -3.2458511004 -3.0172744712 0.1640499263
H -4.9864980840 -1.5239598872 -0.3623150463
H -4.6844422776 0.1900647111 0.1136638710
H -4.4584580304 -0.3087009584 -1.5813301100
H -1.6872887034 -4.6859600915 0.7448503841
H -0.0837579557 -4.4380822172 -0.0397155646
H -0.2826774743 -4.0642009301 1.6897931781
C 2.6023763198 1.8304485696 0.1293498126
C 1.7127446621 2.6656895320 -0.7998865740
H 3.6717768363 1.8653301869 -0.1659567305
H 2.5451253696 2.2016558218 1.1749790009
H 1.8718578553 3.7560264866 -0.6640175515
H 1.9261313076 2.4396136970 -1.8665007875
C 2.6198221320 -0.7113967462 1.6667092722
H 2.2511082300 -0.1738478814 2.5619198092
H 2.2339724001 -1.7490416223 1.6954849833
H 3.7281573103 -0.7216874123 1.6717778757
C 2.8014071014 -0.7938997591 -1.2335154178
H 2.4298397686 -1.8373319200 -1.2551173880
H 2.5509509736 -0.3133749165 -2.1994612108
H 3.9019795337 -0.7956451748 -1.0992898858
C -0.5885864633 3.3042334432 0.9219855070
C -1.8182063892 2.8156742377 1.6931078743
H 0.2949513261 3.3539324500 1.5940400866
H -0.7343220052 4.3313143725 0.5215536707
H -2.0345276791 3.4980156269 2.5390424530
H -1.6600923397 1.8015454842 2.1119155366
H -2.7215408928 2.7701319443 1.0554381156
C -0.9332602926 2.9002775413 -2.0145356845
C -2.4557291358 3.0294374013 -1.9263914835
H -0.6407854028 2.2240162942 -2.8464126636
H -0.4582883631 3.8843300992 -2.2242371525
H -2.7623212701 3.7838605789 -1.1748762536
H -2.9253954183 2.0633969682 -1.6614404317
H -2.8615805663 3.3602152687 -2.9029216311
45
step=44 E=-2725.234873110366 Eh
Co -0.2174777545 0.0600689822 -0.0836297042
P 1.9644728408 0.0810005419 0.1511855914
P -0.0850519795 2.2270411408 -0.5096823097
O -2.0962445584 0.0794069950 -0.3708186653
O -0.1355379572 -1.7966798004 0.3234938511
C -2.8887084708 -0.9377120154 -0.2536922591
C -2.4773334681 -2.2399451662 0.0967847938
C -1.1436369446 -2.6097287703 0.3588975570
C -4.3409901044 -0.6477119773 -0.5339144521
C -0.7985044699 -4.0338807175 0.7090137599
H -3.2474619090 -3.0192843129 0.1642125960
H -4.9886083786 -1.5258153340 -0.3618454996
H -4.6860869141 0.1911054856 0.1042787087
H -4.4586777601 -0.3183065597 -1.5874056769
H -1.6879969146 -4.6875810758 0.7455822070
H -0.0832792157 -4.4387725054 -0.0366149303
H -0.2853696855 -4.0640615356 1.6922559834
C 2.5984091411 1.8311278875 0.1318989323
C 1.7088065946 2.6654937937 -0.7983026752
H 3.6678163303 1.8665402466 -0.1633980920
H 2.5412724233 2.2017113152 1.1777158084
H 1.8668866612 3.7560445788 -0.6629602532
H 1.9244078081 2.4387403019 -1.8643092625
C 2.6168365585 -0.7125348436 1.6668271845
H 2.2476878363 -0.1755648184 2.5622074840
H 2.2311865902 -1.7502744205 1.6946026298
H 3.7251881614 -0.7226056418 1.6726141430
C 2.8012574622 -0.7915831398 -1.2332611582
H 2.4305845638 -1.8352577311 -1.2569101743
H 2.5518455308 -0.3096407165 -2.1987786372
H 3.9016350384 -0.7922149138 -1.0974703827
C -0.5923780287 3.3028372555 0.9218875847
C -1.8221608826 2.8143233676 1.6928512481
H 0.2909717768 3.3511563453 1.5943394004
H -0.7370503293 4.3304163730 0.5223568797
H -2.0390732143 3.4968939646 2.5383835429
H -1.6634042453 1.8001357372 2.1115873939
H -2.7251685708 2.7675953596 1.0547815958
C -0.9356854588 2.8980100731 -2.0148780620
C -2.4582457868 3.0269894188 -1.9281363538
H -0.6428283776 2.2217273950 -2.8466186904
H -0.4606821540 3.8820807427 -2.2245531583
H -2.7659134626 3.7797634739 -1.1753926114
H -2.9279383370 2.0603011460 -1.6659661849
H -2.8629904238 3.3600127766 -2.9043758849
45
step=45 E=-2725.234875143616 Eh
Co -0.2204373890 0.0589414869 -0.0840195247
P 1.9611408712 0.0809641426 0.1519138618
P -0.0886328377 2.2259253998 -0.5098406323
O -2.0990562557 0.0770564258 -0.3730952967
O -0.1372532140 -1.7982079691 0.3223212051
C -2.8909361097 -0.9404925191 -0.2556076421
C -2.4791025930 -2.2422247561 0.0962467550
C -1.1453089612 -2.6114336101 0.3584688690
C -4.3430762606 -0.6518008155 -0.5378050139
C -0.7998175615 -4.0351616339 0.7099167244
H -3.2488887982 -3.0219229306 0.1634897916
H -4.9910944960 -1.5284653487 -0.3600113580
H -4.6878685736 0.1918398528 0.0940658078
H -4.4604239582 -0.3299804284 -1.5937440107
H -1.6887228013 -4.6897975019 0.7442794407
H -0.0818559754 -4.4396649037 -0.0332584244
H -0.2896892809 -4.0643682105 1.6947857711
C 2.5937956899 1.8316748073 0.1341815083
C 1.7043524889 2.6653907906 -0.7969523960
H 3.6633553560 1.8672128404 -0.1604973875
H 2.5358383647 2.2019462255 1.1800389664
H 1.8616318170 3.7560782831 -0.6616395735
H 1.9222832720 2.4387848581 -1.8625195478
C 2.6124967583 -0.7128829106 1.6678482589
H 2.2423904091 -0.1763646729 2.5631100268
H 2.2274584737 -1.7508574434 1.6948200945
H 3.7208649560 -0.7221898238 1.6747562613
C 2.8004604182 -0.7897223019 -1.2321676950
H 2.4301949931 -1.8334667828 -1.2581061990
H 2.5530907054 -0.3063193417 -2.1974844527
H 3.9005526423 -0.7900708281 -1.0940152412
C -0.5967582352 3.3008533825 0.9219181319
C -1.8266987761 2.8117464679 1.6925713161
H 0.2864717389 3.3479973532 1.5946493291
H -0.7410071094 4.3289532849 0.5236197766
H -2.0442248252 3.4943426249 2.5378662638
H -1.6678406130 1.7973171713 2.1110228207
H -2.7293976954 2.7644226993 1.0540700113
C -0.9389527838 2.8965328322 -2.0151895451
C -2.4618601759 3.0232189785 -1.9307145561
H -0.6440172616 2.2214056382 -2.8471826735
H -0.4647288745 3.8812623599 -2.2237345810
H -2.7719659937 3.7734432655 -1.1764341467
H -2.9305591585 2.0551237320 -1.6718410320
H -2.8651396769 3.3582950294 -2.9068392775
45
step=46 E=-2725.234876634509 Eh
Co -0.2246491977 0.0573775813 -0.0846626488
P 1.9564451964 0.0810653896 0.1538184022
P -0.0936540535 2.2243963578 -0.5101504110
O -2.1029638998 0.0737355101 -0.3764703610
O -0.1396250395 -1.8002973806 0.3209103833
C -2.8940028039 -0.9443708443 -0.2584855670
C -2.4814321209 -2.2455079485 0.0948378743
C -1.1474810067 -2.6138430762 0.3574488508
C -4.3461514030 -0.6574442928 -0.5424060605
C -0.8014645284 -4.0371379397 0.7101175510
H -3.2506054388 -3.0258018154 0.1618599690
H -4.9941726313 -1.5330370802 -0.3594097930
H -4.6909588452 0.1902636503 0.0839397737
H -4.4635865358 -0.3422823471 -1.6003980498
H -1.6897715445 -4.6926820373 0.7428717267
H -0.0813118819 -4.4413952145 -0.0310451621
H -0.2936864034 -4.0653702901 1.6962562045
C 2.5875956935 1.8322928712 0.1368822588
C 1.6984707805 2.6651197658 -0.7955275909
H 3.6574894455 1.8681566485 -0.1564044825
H 2.5276406898 2.2027617545 1.1825498786
H 1.8549685685 3.7559567303 -0.6602614068
H 1.9186538344 2.4388673994 -1.8607308833
C 2.6066607692 -0.7123563396 1.6704665576
H 2.2353662518 -0.1760035153 2.5653398447
H 2.2223156928 -1.7505879637 1.6970449764
H 3.7150341676 -0.7207628551 1.6785576645
C 2.7987463806 -0.7883076335 -1.2292000657
H 2.4287608588 -1.8320938918 -1.2571398751
H 2.5538260108 -0.3039120353 -2.1946360856
H 3.8985057909 -0.7887569886 -1.0882786327
C -0.6032956708 3.2980484473 0.9220383039
C -1.8321321671 2.8062050110 1.6927181201
H 0.2798939334 3.3462669500 1.5947573985
H -0.7494729550 4.3261443944 0.5244936363
H -2.0522096319 3.4891832633 2.5370316850
H -1.6704700694 1.7926256476 2.1122859940
H -2.7343547983 2.7555118470 1.0537539997
C -0.9434438133 2.8951901572 -2.0157784021
C -2.4668653991 3.0183861360 -1.9346176819
H -0.6450268850 2.2220318672 -2.8481881591
H -0.4705176338 3.8810584149 -2.2220630149
H -2.7805265807 3.7643023481 -1.1775413035
H -2.9338807486 2.0480583010 -1.6812634357
H -2.8680620285 3.3570188947 -2.9103423521
45
step=47 E=-2725.234877401219 Eh
Co -0.2302068997 0.0552974030 -0.0855441026
P 1.9503429825 0.0812964515 0.1570675035
P -0.1003565247 2.2224228060 -0.5106266621
O -2.1080767011 0.0692548755 -0.3804985766
O -0.1427651154 -1.8029688228 0.3189049835
C -2.8979790837 -0.9496128016 -0.2621538546
C -2.4842817390 -2.2501581114 0.0921706256
C -1.1500520449 -2.6172538235 0.3552011726
C -4.3502795301 -0.6648104413 -0.5474547148
C -0.8031281023 -4.0402090780 0.7084304563
H -3.2525971028 -3.0312960047 0.1587757578
H -4.9980079771 -1.5394615328 -0.3589830589
H -4.6951554971 0.1867586571 0.0735576690
H -4.4682580466 -0.3563007504 -1.6073835206
H -1.6904463617 -4.6973158192 0.7370194887
H -0.0789395559 -4.4429140378 -0.0295993156
H -0.2998796942 -4.0681434599 1.6969336572
C 2.5798165509 1.8329870776 0.1401174109
C 1.6910899517 2.6646327684 -0.7938278878
H 3.6502243507 1.8696873395 -0.1510194491
H 2.5168535890 2.2041147597 1.1853896499
H 1.8467591012 3.7556123486 -0.6585042736
H 1.9131810578 2.4388603964 -1.8587676685
C 2.5992337641 -0.7109130314 1.6749065720
H 2.2265538458 -0.1743938525 2.5691093667
H 2.2155814841 -1.7494002389 1.7015358303
H 3.7076002282 -0.7184435161 1.6842145086
C 2.7957260353 -0.7874110893 -1.2244129012
H 2.4257072227 -1.8311543677 -1.2539655988
H 2.5534157782 -0.3024374875 -2.1902082475
H 3.8951336921 -0.7884148042 -1.0806408953
C -0.6124304527 3.2944653963 0.9220286954
C -1.8400073476 2.7991271107 1.6924516067
H 0.2705621638 3.3451419949 1.5948045458
H -0.7616592340 4.3221676704 0.5246478987
H -2.0630097838 3.4822654773 2.5358964405
H -1.6754605338 1.7865848453 2.1134647638
H -2.7416904121 2.7450587891 1.0529669475
C -0.9490974906 2.8938686157 -2.0167351004
C -2.4732635266 3.0108965033 -1.9404222074
H -0.6449206706 2.2241306488 -2.8498717396
H -0.4790010967 3.8819497996 -2.2189724961
H -2.7925499226 3.7506239906 -1.1796424707
H -2.9374991482 2.0372364348 -1.6948315478
H -2.8718187189 3.3541334394 -2.9155918416
45
step=48 E=-2725.234877331650 Eh
Co -0.2360046694 0.0528164045 -0.0862573192
P 1.9440598847 0.0815303263 0.1613046688
P -0.1077181299 2.2200710736 -0.5110709065
O -2.1133268610 0.0642153117 -0.3841755171
O -0.1462802043 -1.8057714166 0.3169675403
C -2.9021280193 -0.9554396323 -0.2657843699
C -2.4871825914 -2.2555234785 0.0888942823
C -1.1526231664 -2.6212237079 0.3523118634
C -4.3546552202 -0.6725186191 -0.5519470271
C -0.8043354627 -4.0439838047 0.7050929533
H -3.2546071370 -3.0375421042 0.1550931580
H -5.0017217188 -1.5470405731 -0.3605634914
H -4.7000960640 0.1807538286 0.0664052335
H -4.4730771580 -0.3675353793 -1.6128490295
H -1.6904446056 -4.7029260113 0.7287181977
H -0.0758499282 -4.4441312762 -0.0300508128
H -0.3057733634 -4.0723290253 1.6959829850
C 2.5717183883 1.8336976719 0.1436137111
C 1.6834584753 2.6639204008 -0.7920416643
H 3.6427134619 1.8719440280 -0.1450421648
H 2.5054705206 2.2057422739 1.1883900198
H 1.8381628492 3.7550729671 -0.6568773724
H 1.9066660405 2.4381837038 -1.8567759929
C 2.5916970406 -0.7089105599 1.6805710083
H 2.2175596479 -0.1720091176 2.5739344512
H 2.2087239323 -1.7476517156 1.7075983154
H 3.7000448114 -0.7157047605 1.6909978696
C 2.7922080104 -0.7873640087 -1.2183277884
H 2.4218663726 -1.8309926751 -1.2486413863
H 2.5520264196 -0.3024176066 -2.1846595785
H 3.8913173833 -0.7890419305 -1.0722688380
C -0.6229227314 3.2906707101 0.9217873900
C -1.8491031902 2.7915472972 1.6917396301
H 0.2596500924 3.3450471641 1.5947763849
H -0.7758434722 4.3175761169 0.5237413622
H -2.0756651839 3.4750253348 2.5340230454
H -1.6809829204 1.7805524240 2.1150423977
H -2.7500447817 2.7332162078 1.0515746546
C -0.9548212537 2.8924400524 -2.0179410528
C -2.4797120325 3.0026388809 -1.9470016066
H -0.6443019055 2.2266802624 -2.8519439872
H -0.4882791408 3.8832073934 -2.2152213248
H -2.8052255608 3.7354100812 -1.1821354900
H -2.9410204342 2.0254013960 -1.7104541779
H -2.8755521113 3.3513311193 -2.9213429304
45
step=49 E=-2725.234877841129 Eh
Co -0.2378620912 0.0515342069 -0.0866511471
P 1.9420813857 0.0815414295 0.1632545670
P -0.1105856901 2.2189072416 -0.5112183749
O -2.1150009154 0.0620747296 -0.3849817695
O -0.1475734291 -1.8069038006 0.3160667328
C -2.9035155746 -0.9578274936 -0.2667850279
C -2.4880460563 -2.2579154411 0.0872423383
C -1.1532995228 -2.6230739959 0.3505347781
C -4.3562046936 -0.6751946677 -0.5525386516
C -0.8042112953 -4.0459228710 0.7022197215
H -3.2551750394 -3.0402359083 0.1533613732
H -5.0028408570 -1.5501850648 -0.3617996900
H -4.7019388482 0.1772072408 0.0668592282
H -4.4748845685 -0.3692571434 -1.6131091547
H -1.6896292578 -4.7059099661 0.7222427228
H -0.0731069733 -4.4439335661 -0.0314529662
H -0.3085686381 -4.0752424318 1.6945505361
C 2.5690305467 1.8338923340 0.1449947243
C 1.6809939547 2.6635364287 -0.7912621135
H 3.6402991010 1.8732942230 -0.1425278721
H 2.5015171882 2.2062456620 1.1896094449
H 1.8352045818 3.7547536922 -0.6561669680
H 1.9039279477 2.4375423746 -1.8559921357
C 2.5891984145 -0.7078781004 1.6832553689
H 2.2141885645 -0.1708952302 2.5761995878
H 2.2067436269 -1.7468168777 1.7104694655
H 3.6975336419 -0.7142316979 1.6942352083
C 2.7909808081 -0.7880487459 -1.2155165212
H 2.4201943934 -1.8315379143 -1.2455086567
H 2.5512376923 -0.3034647122 -2.1821412201
H 3.8900256818 -0.7900972082 -1.0690682816
C -0.6274383170 3.2889981320 0.9215631223
C -1.8541167515 2.7895224398 1.6903899707
H 0.2545046637 3.3443252687 1.5952672223
H -0.7807227999 4.3156598705 0.5229700249
H -2.0817069985 3.4731390985 2.5323181478
H -1.6859898570 1.7789213189 2.1146039387
H -2.7544637019 2.7306515247 1.0494608497
C -0.9566436497 2.8917755689 -2.0184982718
C -2.4817725892 2.9990347109 -1.9498362031
H -0.6435385521 2.2278312689 -2.8529554326
H -0.4919647608 3.8838670105 -2.2134316467
H -2.8099480311 3.7293931748 -1.1837963922
H -2.9421197243 2.0205224786 -1.7167315692
H -2.8766193050 3.3495650971 -2.9239486446
45
step=50 E=-2725.234878084410 Eh
Co -0.2396169962 0.0498419141 -0.0870915991
P 1.9401996328 0.0813732299 0.1651143098
P -0.1138277892 2.2174086341 -0.5112332398
O -2.1166212793 0.0595796945 -0.3854993411
O -0.1490091862 -1.8082181446 0.3153129213
C -2.9048897192 -0.9606062092 -0.2678096788
C -2.4888823166 -2.2607396276 0.0853196805
C -1.1539747796 -2.6252886400 0.3486429867
C -4.3576650254 -0.6780971387 -0.5532884791
C -0.8039048145 -4.0481712707 0.6992277320
H -3.2557454392 -3.0433615503 0.1512987397
H -5.0039048191 -1.5537080362 -0.3640404480
H -4.7038710082 0.1730116399 0.0676103177
H -4.4762019456 -0.3705170122 -1.6133742847
H -1.6884753072 -4.7093802500 0.7154216288
H -0.0698872637 -4.4437927753 -0.0327973156
H -0.3113722426 -4.0783965596 1.6930900393
C 2.5661439835 1.8340831951 0.1468719724
C 1.6784665915 2.6631687760 -0.7900619982
H 3.6376949480 1.8748708958 -0.1395137691
H 2.4975804593 2.2063614081 1.1914689451
H 1.8318580641 3.7544808440 -0.6550368657
H 1.9012774688 2.4367297383 -1.8547013743
C 2.5865187884 -0.7071688890 1.6859059923
H 2.2101583655 -0.1704224779 2.5784168196
H 2.2049500040 -1.7464490253 1.7129281862
H 3.6948430472 -0.7127382627 1.6978825794
C 2.7901207561 -0.7887688796 -1.2127575310
H 2.4190775438 -1.8321782142 -1.2423662923
H 2.5506538774 -0.3045749324 -2.1796547367
H 3.8891019046 -0.7907803185 -1.0659811151
C -0.6326434911 3.2872757083 0.9210479490
C -1.8602030331 2.7878577756 1.6884461606
H 0.2484417782 3.3431958584 1.5958089140
H -0.7856079069 4.3137657652 0.5218063057
H -2.0891799530 3.4719730694 2.5296054719
H -1.6919717996 1.7778076904 2.1139297475
H -2.7596492875 2.7279005291 1.0463873642
C -0.9585315267 2.8905969594 -2.0190693934
C -2.4838459621 2.9954898862 -1.9526248652
H -0.6433330303 2.2282864763 -2.8539971641
H -0.4955322990 3.8838872273 -2.2118122043
H -2.8144034245 3.7239374142 -1.1857796341
H -2.9435230249 2.0159725296 -1.7226194084
H -2.8777409862 3.3476441577 -2.9265775098
45
step=51 E=-2725.234878100024 Eh
Co -0.2408005125 0.0487047344 -0.0874429145
P 1.9388783257 0.0812071223 0.1659502302
P -0.1159872584 2.2164297714 -0.5111695671
O -2.1178057684 0.0578992702 -0.3858755966
O -0.1498462587 -1.8092072152 0.3148194304
C -2.9058093624 -0.9625689961 -0.2686847780
C -2.4893824119 -2.2626973716 0.0839067962
C -1.1544058198 -2.6267824384 0.3474690128
C -4.3586190580 -0.6803085041 -0.5541932251
C -0.8037805072 -4.0495684334 0.6978211496
H -3.2559947929 -3.0456036231 0.1495934696
H -5.0045964090 -1.5563207629 -0.3659281827
H -4.7052632663 0.1701232948 0.0673784694
H -4.4769508721 -0.3718368950 -1.6140456703
H -1.6877842047 -4.7115708768 0.7118134839
H -0.0678204145 -4.4439984577 -0.0328741471
H -0.3133134123 -4.0799652286 1.6927149648
C 2.5640777336 1.8342099879 0.1483294776
C 1.6767121906 2.6629938982 -0.7890996862
H 3.6358002413 1.8755661925 -0.1373886667
H 2.4949249640 2.2062061649 1.1929874457
H 1.8294941480 3.7543756717 -0.6540871555
H 1.9000014064 2.4363831363 -1.8535888433
C 2.5843791609 -0.7070536346 1.6872483923
H 2.2069236568 -0.1706319775 2.5794907258
H 2.2035000996 -1.7465970629 1.7138436686
H 3.6926996088 -0.7119255282 1.7002007368
C 2.7899358677 -0.7888289173 -1.2113118292
H 2.4191031626 -1.8323027548 -1.2410074184
H 2.5508711001 -0.3047362410 -2.1783639528
H 3.8888318175 -0.7904590731 -1.0639483866
C -0.6359280006 3.2863684216 0.9205825803
C -1.8640714179 2.7871513713 1.6872734360
H 0.2446698685 3.3422947423 1.5959851155
H -0.7884489792 4.3128326803 0.5210885475
H -2.0938855666 3.4717888446 2.5277621105
H -1.6958440005 1.7774147127 2.1135254847
H -2.7629532567 2.7263606262 1.0445024806
C -0.9599051432 2.8895009336 -2.0193857781
C -2.4853423753 2.9931825804 -1.9542849853
H -0.6435926441 2.2279693910 -2.8545005326
H -0.4976534417 3.8833311961 -2.2111537868
H -2.8172158011 3.7207648432 -1.1871827360
H -2.9446249398 2.0131651774 -1.7256685009
H -2.8785834589 3.3459629242 -2.9282856237
45
step=52 E=-2725.234878314859 Eh
Co -0.2414936539 0.0480698040 -0.0877196512
P 1.9380713767 0.0810732307 0.1661864108
P -0.1172278409 2.2159156518 -0.5111119055
O -2.1185609942 0.0569313785 -0.3861366714
O -0.1502266622 -1.8098326174 0.3145986046
C -2.9063020539 -0.9637844365 -0.2693781785
C -2.4895733833 -2.2638832772 0.0829248079
C -1.1545968760 -2.6276623769 0.3468498926
C -4.3591231505 -0.6818119114 -0.5550017455
C -0.8037284250 -4.0503310180 0.6973659856
H -3.2559764465 -3.0470279099 0.1482863759
H -5.0049024743 -1.5581079156 -0.3674246836
H -4.7061427154 0.1682210044 0.0669032527
H -4.4773066769 -0.3727596937 -1.6147132787
H -1.6874353039 -4.7127416158 0.7104797063
H -0.0667994793 -4.4444053187 -0.0325351055
H -0.3142788744 -4.0805535729 1.6927804835
C 2.5628102062 1.8342661774 0.1492623564
C 1.6757167992 2.6629554743 -0.7884983669
H 3.6346332228 1.8756564126 -0.1360924846
H 2.4933558648 2.2059944520 1.1939836881
H 1.8281313455 3.7543722134 -0.6534059207
H 1.8996310497 2.4363800203 -1.8528559936
C 2.5828642385 -0.7071978114 1.6878014473
H 2.2046283212 -0.1710375013 2.5798715616
H 2.2024139347 -1.7469028077 1.7139838798
H 3.6911835872 -0.7115777924 1.7015497708
C 2.7900646976 -0.7886410075 -1.2106947819
H 2.4196716223 -1.8322568512 -1.2405983946
H 2.5513294856 -0.3045853625 -2.1778489218
H 3.8888885498 -0.7897688757 -1.0627761947
C -0.6376804601 3.2860798760 0.9202007067
C -1.8659815137 2.7868791433 1.6867625291
H 0.2427327581 3.3419912596 1.5958584299
H -0.7900422095 4.3125191463 0.5206069604
H -2.0962797299 3.4718893318 2.5267899682
H -1.6975082688 1.7773446930 2.1133929555
H -2.7646198891 2.7253902716 1.0437002428
C -0.9607581947 2.8887207030 -2.0195758899
C -2.4862716775 2.9920041013 -1.9551038795
H -0.6440089873 2.2273883451 -2.8546883930
H -0.4986494957 3.8826680970 -2.2111274393
H -2.8186421122 3.7194935710 -1.1881285579
H -2.9453174311 2.0118492254 -1.7266112530
H -2.8791901238 3.3446576774 -2.9292719138
