39
step=19 E=-2646.770388365228 Eh
Co -0.0513124083 -0.0565938788 -0.1259607180
P 2.1406194053 -0.0003516660 -0.0532553406
P -0.0089120181 2.1305633966 -0.2885176966
O -1.9429958341 0.0389895600 -0.1445693156
O 0.0330857589 -1.9340506433 0.1229741560
C -2.7437533684 -0.9679435811 -0.0141826674
C -2.3315891218 -2.3066471462 0.1347195415
C -0.9864819465 -2.7252028149 0.1863922259
C -4.2168801414 -0.6392015851 -0.0517498367
C -0.6698036545 -4.1939597118 0.3396160705
H -3.1128878587 -3.0731861871 0.2286779291
H -4.7489991476 -1.0945310161 0.8070169623
H -4.3680915978 0.4549806097 -0.0425316062
H -4.6751290818 -1.0556256831 -0.9729877227
H -1.1373546409 -4.7787132308 -0.4781266733
H 0.4225807009 -4.3571530037 0.3276736783
H -1.0841002746 -4.5846824073 1.2917615990
C 2.7077671119 1.7780869075 0.1153803288
C 1.7341122137 2.6946977170 -0.6396246725
H 3.7375809091 1.8580030668 -0.2889623598
H 2.7436812803 2.0132954410 1.1991113878
H 1.8416895549 3.7592208165 -0.3454725615
H 1.8911666473 2.6309062001 -1.7368650306
C 2.9018443389 -0.9403016603 1.3190014153
C 3.0314897923 -0.6159034158 -1.5520984375
C -0.4836254383 2.9330609729 1.3147486936
C -1.0698494514 2.9362626781 -1.5486248338
H 3.9895724269 -0.7358732598 1.3839718297
H 2.7320925885 -2.0160752607 1.1169253287
H 2.4156654128 -0.6823459640 2.2788428051
H 3.9950569855 -1.0770707668 -1.2550446201
H 3.2522903003 0.2642144368 -2.1870227359
H 2.4389779178 -1.3485860420 -2.1305193081
H 0.3387322555 3.5602858829 1.7111650403
H -1.3715856443 3.5748404253 1.1551994972
H -0.7426655525 2.1661797948 2.0685952110
H -2.0994644354 3.0035142387 -1.1493264124
H -0.7290376330 3.9563305216 -1.8204700861
H -1.0661492916 2.2822782827 -2.4403929170
39
step=20 E=-2646.771865709085 Eh
Co -0.0497656828 -0.0569620121 -0.1494551677
P 2.1424237784 -0.0077991496 -0.0679500545
P -0.0086557320 2.1305912490 -0.2824936171
O -1.9401313310 0.0301073146 -0.1903008896
O 0.0319617909 -1.9284913627 0.1368366310
C -2.7398668937 -0.9768851669 -0.0570387233
C -2.3332575925 -2.3155453712 0.1207820433
C -0.9847992446 -2.7227088431 0.2052755942
C -4.2127571235 -0.6494928511 -0.1255292304
C -0.6631843537 -4.1856098309 0.4041077532
H -3.0913881229 -3.1019285111 0.2289159913
H -4.7638597499 -1.1075462825 0.7196562053
H -4.3660808363 0.4444625635 -0.1175882354
H -4.6493978189 -1.0636923596 -1.0583623453
H -1.1196777234 -4.7957441523 -0.4013227519
H 0.4298988900 -4.3451248988 0.4080043699
H -1.0856418681 -4.5506370346 1.3628627720
C 2.7237667233 1.7728084724 0.0599581904
C 1.7264289501 2.6921060251 -0.6645227892
H 3.7355446151 1.8447476202 -0.3881259842
H 2.8083791425 2.0161703651 1.1388000598
H 1.8464902206 3.7532227471 -0.3628143263
H 1.8663751296 2.6397424275 -1.7645787686
C 2.8679818774 -0.9371971548 1.3297504635
C 3.0224550813 -0.6537084984 -1.5577178623
C -0.4386393098 2.9018470553 1.3498122974
C -1.0997101382 2.9623463841 -1.4906963124
H 3.9750862819 -0.8919608418 1.3077664279
H 2.5262319552 -1.9864754571 1.2218169823
H 2.4964548882 -0.5447487949 2.2956392381
H 4.0432694802 -0.9596631882 -1.2510726480
H 3.1301266019 0.1940986830 -2.2640189362
H 2.4735069318 -1.4826642836 -2.0378335429
H 0.3995959995 3.5106379270 1.7414438967
H -1.3219448150 3.5576042713 1.2211299537
H -0.6915236428 2.1232429184 2.0939586224
H -2.1506561902 2.8823575826 -1.1502043754
H -0.8267066686 4.0330770119 -1.5863492378
H -1.0145869463 2.4621162542 -2.4749414605
39
step=21 E=-2646.773450184992 Eh
Co -0.0465245243 -0.0597313670 -0.1394893162
P 2.1481041355 -0.0004135225 -0.0702254227
P 0.0086823460 2.1280800236 -0.2536210663
O -1.9406051290 0.0240263390 -0.2009439127
O 0.0372540106 -1.9365197333 0.1344241205
C -2.7430185993 -0.9840842520 -0.0839273413
C -2.3247315379 -2.3178029624 0.0932345940
C -0.9816336885 -2.7312406820 0.2027591013
C -4.2161136284 -0.6651911849 -0.1710173358
C -0.6652754999 -4.1908268694 0.4257262000
H -3.1111186994 -3.0779578662 0.2035763561
H -4.7781119618 -1.1449950072 0.6547876079
H -4.3772470598 0.4274663712 -0.1424528345
H -4.6347420093 -1.0614796439 -1.1199219456
H -1.1164731407 -4.8139660736 -0.3729976184
H 0.4273833634 -4.3535394329 0.4396238171
H -1.0956421196 -4.5387056687 1.3873326536
C 2.7426446670 1.7743037000 0.0563680061
C 1.7360636498 2.6950187194 -0.6561091121
H 3.7552641709 1.8716631652 -0.3862328124
H 2.8300397816 2.0300574389 1.1331299270
H 1.8766996956 3.7591857562 -0.3729672308
H 1.8512669894 2.6328497376 -1.7590995842
C 2.8838784595 -0.9146729938 1.3377971134
C 2.9769680616 -0.6836920161 -1.5715973218
C -0.4136668424 2.9146799433 1.3741704887
C -1.0960351678 2.9448656812 -1.4585793965
H 3.9878558024 -0.9629316863 1.2604719433
H 2.4544162162 -1.9365600717 1.3097256575
H 2.5981725568 -0.4440382591 2.2986926477
H 4.0320763266 -0.8816915171 -1.2952255509
H 2.9777252686 0.0828841999 -2.3743200258
H 2.4489838828 -1.5879446223 -1.9232661779
H 0.4332554016 3.5174127614 1.7562233542
H -1.2919421548 3.5781123550 1.2481163921
H -0.6702615565 2.1417992961 2.1234305595
H -2.1494859280 2.7441614467 -1.1807057462
H -0.9165219870 4.0388947933 -1.4750613916
H -0.9305426355 2.5390173791 -2.4767567674
39
step=22 E=-2646.774498540906 Eh
Co -0.0443447051 -0.0464465117 -0.1027931008
P 2.1526246865 0.0009450183 -0.0512546105
P 0.0083001463 2.1425042409 -0.2309686035
O -1.9408366884 0.0335876495 -0.1796736139
O 0.0507740583 -1.9304621926 0.1350596122
C -2.7367902459 -0.9834058266 -0.0812268557
C -2.3108032261 -2.3156656247 0.0903683471
C -0.9686132762 -2.7286503657 0.2005007407
C -4.2101743268 -0.6744334403 -0.1806521844
C -0.6485891035 -4.1872523295 0.4160279780
H -3.0922544507 -3.0860609051 0.1617209824
H -4.7783420310 -1.1759702392 0.6277275709
H -4.3800518419 0.4161465260 -0.1302414061
H -4.6147004495 -1.0521843762 -1.1432238969
H -1.1003127996 -4.8106785235 -0.3823158425
H 0.4445450181 -4.3470295528 0.4253018575
H -1.0744991351 -4.5380824099 1.3785497289
C 2.7503303641 1.7646258464 0.0682047564
C 1.7421793036 2.6870772694 -0.6366630990
H 3.7756092332 1.8743381379 -0.3440659589
H 2.8236303906 2.0036788902 1.1508560277
H 1.8875977605 3.7598101504 -0.3893216287
H 1.8440066917 2.6041325795 -1.7401473015
C 2.9005615346 -0.9191709399 1.3476143930
C 2.9220772758 -0.6932341443 -1.5766638802
C -0.4120675207 2.9601383856 1.3815742890
C -1.0868440825 2.9245308990 -1.4743778768
H 4.0025041385 -0.9892760075 1.2561158002
H 2.4588486683 -1.9357410021 1.3495393404
H 2.6381621430 -0.4254380572 2.3036040097
H 3.9974806202 -0.8645869004 -1.3707388810
H 2.8280011738 0.0306414085 -2.4105595238
H 2.3992972428 -1.6341750133 -1.8308567153
H 0.4434174230 3.5580439514 1.7522228202
H -1.2829957775 3.6321090326 1.2520777111
H -0.6757027511 2.1991968219 2.1405132636
H -2.1338243370 2.6638043160 -1.2270710914
H -0.9554853785 4.0247669662 -1.4810681725
H -0.8772317051 2.5411912027 -2.4929982188
39
step=23 E=-2646.775132499055 Eh
Co -0.0453625407 -0.0394730234 -0.0696734154
P 2.1516342658 0.0005841989 -0.0342590130
P 0.0112991317 2.1494244416 -0.2094787481
O -1.9431848020 0.0405132859 -0.1594385535
O 0.0569420843 -1.9286981558 0.1315637651
C -2.7354842546 -0.9812865316 -0.0755115606
C -2.3076419169 -2.3138768515 0.0920789158
C -0.9645119305 -2.7262278197 0.1908366153
C -4.2086188099 -0.6765367663 -0.1860804098
C -0.6421439562 -4.1864359037 0.3876041837
H -3.0845804175 -3.0894763528 0.1526371444
H -4.7849778163 -1.1987129068 0.6032026200
H -4.3847197058 0.4118842223 -0.1133333528
H -4.5999996728 -1.0334331596 -1.1620817908
H -1.1028735512 -4.8031613507 -0.4108335614
H 0.4509966718 -4.3465407197 0.3835706913
H -1.0571368447 -4.5468086482 1.3515082183
C 2.7471166777 1.7597743220 0.0802033022
C 1.7470633383 2.6796595622 -0.6341281636
H 3.7803371039 1.8778457625 -0.3099067986
H 2.7984240201 2.0052632685 1.1634329132
H 1.9266314151 3.7515255345 -0.4068948310
H 1.8342914876 2.5733750245 -1.7377698918
C 2.9308982254 -0.9057858566 1.3567360438
C 2.8771151040 -0.7222676404 -1.5644112790
C -0.4106814154 3.0014868172 1.3853730389
C -1.0821305924 2.8966766619 -1.4779989046
H 4.0302360560 -0.9834459806 1.2376952195
H 2.4885048140 -1.9202418853 1.3939667800
H 2.6989909146 -0.3881799259 2.3085336281
H 3.9706292631 -0.8420816636 -1.4288499997
H 2.6756875286 -0.0491737491 -2.4203092663
H 2.4034203381 -1.7074251745 -1.7440188363
H 0.4503275165 3.5972201068 1.7467305912
H -1.2746792744 3.6792407867 1.2438540596
H -0.6818789401 2.2568218386 2.1578711487
H -2.1186795734 2.5771388568 -1.2570246017
H -1.0044641813 4.0022596955 -1.4678519217
H -0.8075223939 2.5183576147 -2.4825656668
39
step=24 E=-2646.775405928521 Eh
Co -0.0435453177 -0.0385167702 -0.0434712835
P 2.1526616816 0.0003402068 -0.0138200767
P 0.0144983386 2.1498242475 -0.2016490314
O -1.9404940586 0.0439388631 -0.1350109076
O 0.0578092693 -1.9296738904 0.1353439901
C -2.7317797661 -0.9785076597 -0.0578533831
C -2.3084120859 -2.3132529550 0.1029927444
C -0.9643383595 -2.7257395144 0.1865391801
C -4.2042773902 -0.6718783379 -0.1722615853
C -0.6423441275 -4.1897650353 0.3556100708
H -3.0812830056 -3.0928538387 0.1579677879
H -4.7859696458 -1.2067109304 0.6043404990
H -4.3810780463 0.4152242360 -0.0835592812
H -4.5888004096 -1.0129972607 -1.1566096578
H -1.1137679995 -4.7924151620 -0.4470666738
H 0.4503775194 -4.3512782934 0.3375072858
H -1.0469497226 -4.5653941358 1.3182017044
C 2.7489855945 1.7594525416 0.0932123814
C 1.7517666864 2.6719688146 -0.6339191622
H 3.7857233569 1.8726840704 -0.2882816962
H 2.7866513076 2.0005633013 1.1779272482
H 1.9238715874 3.7478286184 -0.4217569342
H 1.8389089155 2.5491898676 -1.7356147095
C 2.9456873409 -0.9067502303 1.3668474391
C 2.8631278135 -0.7222618001 -1.5490090414
C -0.4166806472 3.0283549564 1.3748629238
C -1.0769880897 2.8739776645 -1.4854637752
H 4.0458063842 -0.9618979378 1.2408564627
H 2.5233090172 -1.9296397246 1.3949545092
H 2.7102322355 -0.4014499289 2.3241316471
H 3.9622834201 -0.8233086268 -1.4456971787
H 2.6234344887 -0.0737071590 -2.4138460878
H 2.4150743130 -1.7228573299 -1.7089566725
H 0.4432621885 3.6268015886 1.7342711687
H -1.2766909813 3.7065580033 1.2138174652
H -0.6961523275 2.2973098082 2.1571735934
H -2.1119650010 2.5465216749 -1.2673204038
H -1.0225722663 3.9810023004 -1.4942086002
H -0.7847786137 2.4799230992 -2.4782509298
39
step=25 E=-2646.775644438636 Eh
Co -0.0425718644 -0.0399951611 -0.0161524374
P 2.1510996602 -0.0050186997 0.0119225478
P 0.0147480218 2.1476519460 -0.2017112084
O -1.9379928780 0.0453760720 -0.1062826932
O 0.0578740476 -1.9321016412 0.1408549395
C -2.7294581523 -0.9763341439 -0.0333896574
C -2.3081097608 -2.3130179245 0.1167695602
C -0.9633394723 -2.7278215654 0.1812488547
C -4.2020015216 -0.6676941702 -0.1464936314
C -0.6428255864 -4.1964506611 0.3150658304
H -3.0802893127 -3.0938899544 0.1629885205
H -4.7881573120 -1.2227694237 0.6120872185
H -4.3799890720 0.4167632127 -0.0315679197
H -4.5794646070 -0.9834447055 -1.1420502623
H -1.1296049456 -4.7808123657 -0.4916646654
H 0.4490850754 -4.3598120409 0.2775141863
H -1.0328478791 -4.5905197554 1.2764300848
C 2.7419479942 1.7593285192 0.1061687004
C 1.7531163043 2.6609412425 -0.6449218910
H 3.7793269379 1.8590590560 -0.2751067955
H 2.7688463615 2.0254635561 1.1851705652
H 1.9269104327 3.7377687550 -0.4406566967
H 1.8453626212 2.5210292780 -1.7438466544
C 2.9567184083 -0.9095361681 1.3842687017
C 2.8621457448 -0.7233837274 -1.5231685988
C -0.4145032993 3.0486008682 1.3608558310
C -1.0745804149 2.8526989135 -1.4960407433
H 4.0579198546 -0.9337823212 1.2565823471
H 2.5597982901 -1.9430930873 1.3943428942
H 2.7099237592 -0.4240329342 2.3484686611
H 3.9676935880 -0.7879103809 -1.4587499706
H 2.5734552103 -0.1038508960 -2.3942225642
H 2.4522273120 -1.7441047419 -1.6555418790
H 0.4473964923 3.6450132370 1.7192104755
H -1.2673876557 3.7313961941 1.1821995477
H -0.7043944853 2.3306256428 2.1512277976
H -2.1087674967 2.5205489070 -1.2791337606
H -1.0396239931 3.9605201821 -1.5143596072
H -0.7792228392 2.4564386783 -2.4866295220
39
step=26 E=-2646.775761374374 Eh
Co -0.0440653801 -0.0441308289 -0.0041339456
P 2.1487379885 -0.0044616786 0.0278097170
P 0.0174483512 2.1426888555 -0.2076452532
O -1.9389081709 0.0409094088 -0.0907339829
O 0.0533995064 -1.9364180486 0.1449290958
C -2.7322726792 -0.9790555725 -0.0188964903
C -2.3119954492 -2.3171074145 0.1207625295
C -0.9667811141 -2.7325890833 0.1763847261
C -4.2051284174 -0.6671290751 -0.1244847294
C -0.6465147301 -4.2033458729 0.2918767102
H -3.0854050342 -3.0964730782 0.1670315320
H -4.7927125893 -1.2417852565 0.6180343221
H -4.3827625898 0.4141950355 0.0178586573
H -4.5804845476 -0.9560421625 -1.1290639349
H -1.1427846666 -4.7788399457 -0.5152943117
H 0.4448353918 -4.3674522656 0.2420625065
H -1.0267501170 -4.6059062379 1.2536825193
C 2.7436233231 1.7618297520 0.1130280001
C 1.7556316402 2.6541448241 -0.6528437271
H 3.7798925119 1.8522800618 -0.2732823933
H 2.7692732538 2.0290424336 1.1912702738
H 1.9186766497 3.7331471778 -0.4506860570
H 1.8559124703 2.5082242239 -1.7496373861
C 2.9605115986 -0.9111755608 1.3957516790
C 2.8680308293 -0.7176539486 -1.5049972439
C -0.4127989592 3.0585526155 1.3452508645
C -1.0730190937 2.8404538070 -1.5005589890
H 4.0621082644 -0.9180418320 1.2709707558
H 2.5764489187 -1.9499712130 1.3892575520
H 2.7046087003 -0.4435998410 2.3662897085
H 3.9758983002 -0.7423052072 -1.4564898206
H 2.5531537888 -0.1329243681 -2.3912731578
H 2.4879618275 -1.7525268694 -1.6140156495
H 0.4511082361 3.6502807271 1.7063942496
H -1.2579001739 3.7474659565 1.1521170347
H -0.7162028829 2.3498890187 2.1388730613
H -2.1073739998 2.5038823004 -1.2883855102
H -1.0362580102 3.9485329598 -1.5038745941
H -0.7681716367 2.4438499447 -2.4883172834
39
step=27 E=-2646.775832436630 Eh
Co -0.0446376583 -0.0472145445 -0.0031724515
P 2.1483928032 -0.0053973402 0.0323573667
P 0.0174599788 2.1394845594 -0.2129601861
O -1.9394323417 0.0378337332 -0.0852096360
O 0.0513278203 -1.9394380805 0.1455380903
C -2.7342449215 -0.9812021024 -0.0125459128
C -2.3133002593 -2.3196764421 0.1187614855
C -0.9685175734 -2.7363231378 0.1742385120
C -4.2070410627 -0.6669359153 -0.1095661679
C -0.6481499955 -4.2071063290 0.2867034273
H -3.0898245938 -3.0959230243 0.1627828587
H -4.7934665587 -1.2540822866 0.6238249810
H -4.3834952453 0.4119791581 0.0515393099
H -4.5842504193 -0.9374001050 -1.1186353617
H -1.1477475916 -4.7819290098 -0.5188103510
H 0.4429487958 -4.3714570399 0.2322038515
H -1.0242675159 -4.6097657726 1.2500549871
C 2.7432566609 1.7615091739 0.1207983882
C 1.7570158872 2.6500952759 -0.6515453615
H 3.7799898825 1.8508879702 -0.2647874042
H 2.7678542234 2.0357669500 1.1971426182
H 1.9157095463 3.7298485088 -0.4489755236
H 1.8648424113 2.5042569337 -1.7473582279
C 2.9610422532 -0.9154974635 1.3981023809
C 2.8775641311 -0.7151152800 -1.4974853516
C -0.4140907199 3.0591185054 1.3376536213
C -1.0723052923 2.8386810144 -1.5065315727
H 4.0636426199 -0.9091836348 1.2843509733
H 2.5881997532 -1.9582997669 1.3770283426
H 2.6893607403 -0.4627497991 2.3713835709
H 3.9853972405 -0.7265072607 -1.4520935731
H 2.5573832501 -0.1358844383 -2.3855322760
H 2.5072756700 -1.7530679000 -1.6119783580
H 0.4522290572 3.6445296117 1.7029817219
H -1.2532097157 3.7544521620 1.1405942163
H -0.7279006827 2.3528894551 2.1293298679
H -2.1068534676 2.5069210755 -1.2897975638
H -1.0301327647 3.9462374475 -1.5185218124
H -0.7838019428 2.4470853071 -2.5012249315
39
step=28 E=-2646.775882136757 Eh
Co -0.0436147734 -0.0491204588 -0.0085431939
P 2.1496990018 -0.0100154331 0.0305630504
P 0.0157386623 2.1374240363 -0.2185138339
O -1.9383058371 0.0372987324 -0.0857084476
O 0.0522449604 -1.9408889204 0.1431972255
C -2.7338466823 -0.9813868116 -0.0116676974
C -2.3121714086 -2.3201994079 0.1130615422
C -0.9678669327 -2.7380155196 0.1714740008
C -4.2064449168 -0.6650240811 -0.0992851352
C -0.6476060454 -4.2080594187 0.2890426214
H -3.0904098211 -3.0948110013 0.1582517416
H -4.7916254886 -1.2652802900 0.6242420074
H -4.3815321905 0.4109706416 0.0818887267
H -4.5861171382 -0.9153667743 -1.1126917123
H -1.1499437241 -4.7868689309 -0.5119085128
H 0.4432331944 -4.3729159111 0.2311503079
H -1.0200954007 -4.6058466762 1.2558299169
C 2.7398132581 1.7577986188 0.1259053564
C 1.7570485803 2.6479597893 -0.6489599224
H 3.7778398765 1.8496418182 -0.2558737598
H 2.7622967824 2.0374430895 1.2009750138
H 1.9145609296 3.7277391653 -0.4449911711
H 1.8700472028 2.5053801092 -1.7447247724
C 2.9586110979 -0.9195147881 1.3993568152
C 2.8849714693 -0.7160546438 -1.4985935785
C -0.4170766942 3.0555004934 1.3334182285
C -1.0743097267 2.8396870872 -1.5114739706
H 4.0621924405 -0.9049991298 1.2980060842
H 2.5936083578 -1.9649932097 1.3703063549
H 2.6713165221 -0.4746386474 2.3719274463
H 3.9926214885 -0.7194815471 -1.4532798359
H 2.5600143146 -0.1411472178 -2.3878726084
H 2.5160450466 -1.7552627818 -1.6064308381
H 0.4528372969 3.6313702645 1.7050784861
H -1.2491629824 3.7592834409 1.1360416333
H -0.7419962732 2.3488471798 2.1202738412
H -2.1088381756 2.5099237172 -1.2925536828
H -1.0231040840 3.9466458304 -1.5245173591
H -0.7875992233 2.4456322789 -2.5058679784
39
step=29 E=-2646.775950956414 Eh
Co -0.0437635409 -0.0541362954 -0.0183810591
P 2.1501646307 -0.0116777795 0.0271692648
P 0.0170228782 2.1324971621 -0.2271089809
O -1.9386277373 0.0335857739 -0.0869394168
O 0.0507143790 -1.9452673469 0.1411500116
C -2.7354940586 -0.9844300378 -0.0099124614
C -2.3138303259 -2.3238138753 0.1063753992
C -0.9699935844 -2.7424812196 0.1699507823
C -4.2076845926 -0.6643296997 -0.0851750882
C -0.6498716572 -4.2113571967 0.2979070325
H -3.0923228669 -3.0979423567 0.1537428866
H -4.7944036953 -1.2904616794 0.6144720279
H -4.3811058948 0.4046590236 0.1354621171
H -4.5870928177 -0.8737329236 -1.1080959410
H -1.1600605964 -4.7983125617 -0.4920927285
H 0.4402427829 -4.3776426495 0.2310398130
H -1.0128307249 -4.5990674683 1.2724601701
C 2.7376634423 1.7555368745 0.1288007874
C 1.7592312656 2.6480690391 -0.6473296082
H 3.7787169599 1.8501492240 -0.2448759089
H 2.7569194978 2.0288240957 1.2056367922
H 1.9203148000 3.7263092409 -0.4377209846
H 1.8792797752 2.5121395584 -1.7435012185
C 2.9512962956 -0.9220626172 1.3995868490
C 2.8962794219 -0.7169167437 -1.4973476047
C -0.4191528604 3.0436670952 1.3289940888
C -1.0721577250 2.8418440634 -1.5186877899
H 4.0560326045 -0.8969792405 1.3159954706
H 2.5966340757 -1.9708705959 1.3593164110
H 2.6418621909 -0.4878525482 2.3703277679
H 4.0036032558 -0.6998594209 -1.4542277347
H 2.5568867005 -0.1561242891 -2.3902511537
H 2.5403951407 -1.7620592488 -1.5915301767
H 0.4579403226 3.5972938620 1.7169913718
H -1.2346076384 3.7663831712 1.1303921990
H -0.7686793786 2.3352822984 2.1038020437
H -2.1054969379 2.5112734569 -1.2973106546
H -1.0130980676 3.9482175153 -1.5297275088
H -0.7878381930 2.4514365315 -2.5154431827
39
step=30 E=-2646.776097652850 Eh
Co -0.0405531496 -0.0638590557 -0.0334658433
P 2.1543780886 -0.0201423576 0.0225864120
P 0.0185396819 2.1219949448 -0.2406030701
O -1.9351037813 0.0296735696 -0.0827258149
O 0.0504660821 -1.9531391246 0.1408902613
C -2.7349762532 -0.9863234818 -0.0004709287
C -2.3155321943 -2.3272837750 0.1020550113
C -0.9722727866 -2.7482942181 0.1708483311
C -4.2056687159 -0.6579143158 -0.0566871522
C -0.6544733418 -4.2158500449 0.3128733260
H -3.0950510658 -3.0996600893 0.1555252986
H -4.8013299300 -1.3381961574 0.5813082770
H -4.3765806806 0.3901675363 0.2505790164
H -4.5766064743 -0.7735293817 -1.0978086314
H -1.1884348062 -4.8147409438 -0.4518774341
H 0.4328251094 -4.3877475694 0.2193550582
H -0.9908527430 -4.5852892728 1.3041178540
C 2.7348254130 1.7469078902 0.1395579797
C 1.7631959858 2.6430784588 -0.6401085233
H 3.7810035924 1.8490805061 -0.2184035741
H 2.7442909550 2.0132058343 1.2185427349
H 1.9205429508 3.7210911866 -0.4264864829
H 1.8947285655 2.5146327283 -1.7361878625
C 2.9402500958 -0.9334743092 1.4010492947
C 2.9166123438 -0.7206899143 -1.4959783183
C -0.4323250131 3.0227665423 1.3181328130
C -1.0662347274 2.8388161672 -1.5335403265
H 4.0459902269 -0.8809746770 1.3527366341
H 2.6127645176 -1.9898218888 1.3346227936
H 2.5872588407 -0.5253509750 2.3683307521
H 4.0224029762 -0.6628962034 -1.4600193533
H 2.5491095891 -0.1877106472 -2.3948455257
H 2.5937761123 -1.7780959199 -1.5724652374
H 0.4563478295 3.5243806518 1.7479319390
H -1.2051871510 3.7880729878 1.1089994912
H -0.8424691392 2.3154681223 2.0638022273
H -2.1006966067 2.5142705525 -1.3103842093
H -0.9935631502 3.9442005133 -1.5442435078
H -0.7808692603 2.4457713151 -2.5290829411
39
step=31 E=-2646.776533151451 Eh
Co -0.0296951365 -0.0993026559 -0.0825516769
P 2.1673012312 -0.0496428156 0.0062856041
P 0.0261885020 2.0836195436 -0.2831227015
O -1.9216995479 0.0164773868 -0.0649734965
O 0.0470736730 -1.9818203863 0.1444354209
C -2.7317841523 -0.9917629665 0.0361469079
C -2.3229835691 -2.3373126135 0.1045486087
C -0.9818672397 -2.7689278174 0.1828417929
C -4.1953083600 -0.6346971226 0.0324430325
C -0.6749699628 -4.2329644704 0.3679837544
H -3.1053603029 -3.1041360255 0.1777049086
H -4.8330870223 -1.4545171756 0.4087225828
H -4.3622858332 0.2827852678 0.6282963416
H -4.5153841338 -0.4051002058 -1.0078014455
H -1.3003299277 -4.8640529482 -0.2938401037
H 0.3931026977 -4.4333291080 0.1684418757
H -0.9011311653 -4.5374154489 1.4119803265
C 2.7252779880 1.7171948458 0.1728314280
C 1.7761933574 2.6262243546 -0.6163117374
H 3.7858486160 1.8413585947 -0.1343300634
H 2.6997258565 1.9550244172 1.2589412841
H 1.9254117704 3.7014248659 -0.3836644229
H 1.9443846926 2.5219269746 -1.7108311712
C 2.9018578808 -0.9724272520 1.4044446849
C 2.9850219615 -0.7327486027 -1.4910313011
C -0.4776118629 2.9423688985 1.2829447234
C -1.0390572400 2.8241445874 -1.5824141212
H 3.9981424250 -0.8283159649 1.4737760051
H 2.6749947374 -2.0467157482 1.2561161770
H 2.4151631226 -0.6566713073 2.3480560478
H 4.0758711291 -0.5428178813 -1.4810947167
H 2.5353012280 -0.2966876252 -2.4047340377
H 2.7810346391 -1.8220971926 -1.5074688992
H 0.4179346270 3.2294677055 1.8671145741
H -1.0652424302 3.8543340228 1.0593595929
H -1.1062403598 2.2674877223 1.8948187264
H -2.0801156165 2.5267741998 -1.3556309595
H -0.9287252545 3.9262550498 -1.5951325586
H -0.7540003606 2.4205081343 -2.5739063535
39
step=32 E=-2646.776954332427 Eh
Co -0.0252166975 -0.1171982811 -0.1062671771
P 2.1725239938 -0.0676505498 -0.0034418554
P 0.0296710584 2.0644397287 -0.2993244183
O -1.9160631535 0.0094953866 -0.0596776253
O 0.0436762077 -1.9959477037 0.1500899673
C -2.7309306716 -0.9950849193 0.0486281683
C -2.3292435575 -2.3422406674 0.1167136496
C -0.9882816529 -2.7774594201 0.1982804918
C -4.1900572015 -0.6238343295 0.0662789515
C -0.6862871665 -4.2392233373 0.4056346766
H -3.1120437004 -3.1072775789 0.1988430430
H -4.8490396153 -1.4811736062 0.2887000944
H -4.3629166966 0.1887729980 0.7990916120
H -4.4747326458 -0.2136984815 -0.9274273944
H -1.3626440707 -4.8830085401 -0.1897650090
H 0.3641935338 -4.4592250744 0.1424377105
H -0.8411440437 -4.5066837389 1.4729005987
C 2.7220032817 1.6984170368 0.1909049949
C 1.7818917433 2.6169146445 -0.5977012186
H 3.7875948495 1.8323530573 -0.0941819749
H 2.6788763061 1.9185000088 1.2804680938
H 1.9257621358 3.6900257113 -0.3527229095
H 1.9648625337 2.5249251180 -1.6912230379
C 2.8803379785 -0.9990122010 1.4034043344
C 3.0158555038 -0.7377029999 -1.4936281241
C -0.5054436486 2.8959567949 1.2667172171
C -1.0195521633 2.8167625838 -1.6044773130
H 3.9660471793 -0.8152128993 1.5262765648
H 2.7030232669 -2.0772161728 1.2216218573
H 2.3403929287 -0.7255628718 2.3309490149
H 4.0960020871 -0.4937974915 -1.4880401204
H 2.5423946501 -0.3366580539 -2.4112009112
H 2.8692664272 -1.8361947968 -1.4960888170
H 0.3634558913 3.0409912826 1.9375060229
H -0.9636189762 3.8822211914 1.0550261444
H -1.2551888589 2.2632865514 1.7796237169
H -2.0667913874 2.5403733287 -1.3795659314
H -0.8929840581 3.9173254650 -1.6194122548
H -0.7358880182 2.4039748564 -2.5924543258
39
step=33 E=-2646.777871706326 Eh
Co -0.0220287232 -0.1464949590 -0.1328109008
P 2.1761720800 -0.1071532362 -0.0171549084
P 0.0380730914 2.0335320615 -0.3059605976
O -1.9136025953 -0.0031237258 -0.0552634518
O 0.0283343174 -2.0198740295 0.1745585094
C -2.7359944003 -1.0019866357 0.0575298079
C -2.3499068325 -2.3495540926 0.1722928970
C -1.0076722944 -2.7880560461 0.2528431739
C -4.1888058312 -0.6105909351 0.0936772173
C -0.7130600077 -4.2465638873 0.4939938684
H -3.1313965111 -3.1150680278 0.2618236224
H -4.8693039036 -1.4754824808 0.0116719747
H -4.4068126453 -0.0673673256 1.0382159356
H -4.3979907044 0.1080348577 -0.7248024773
H -1.4908281199 -4.9005366614 0.0567592048
H 0.2799100094 -4.5136020096 0.0871630546
H -0.6941514414 -4.4439148016 1.5879418137
C 2.7251538924 1.6554268247 0.2298843534
C 1.7944856046 2.5974048819 -0.5454829940
H 3.7943127727 1.7990263346 -0.0329235498
H 2.6532775097 1.8374493595 1.3249326230
H 1.9285392460 3.6644672551 -0.2718385432
H 1.9924477423 2.5242387922 -1.6376402388
C 2.8458416567 -1.0626784154 1.3971704433
C 3.0516247755 -0.7438336605 -1.5080388629
C -0.5647605901 2.8109386794 1.2439701415
C -0.9629904959 2.8022155365 -1.6322736667
H 3.9141922782 -0.8283800797 1.5792749820
H 2.7349845330 -2.1414527573 1.1771471754
H 2.2584130679 -0.8350158470 2.3072312388
H 4.1168076512 -0.4365299164 -1.4900412775
H 2.5657473623 -0.3541121126 -2.4232249119
H 2.9963592563 -1.8495949061 -1.5269436400
H 0.1474983026 2.6208433496 2.0710640830
H -0.6922228821 3.9050825929 1.1179854344
H -1.5387606801 2.3485118301 1.4973838388
H -2.0283070511 2.5771636370 -1.4294820395
H -0.8246206711 3.9024881126 -1.6541742864
H -0.6787339923 2.3653607103 -2.6088305895
39
step=34 E=-2646.778599573680 Eh
Co -0.0307940733 -0.1206298775 -0.0898947833
P 2.1653703510 -0.0881966290 -0.0048198209
P 0.0324319870 2.0616836764 -0.2703537172
O -1.9267509366 0.0054623503 -0.0664568843
O 0.0282321224 -2.0009154398 0.1818306321
C -2.7404425304 -0.9994639566 0.0357805682
C -2.3465374309 -2.3422070108 0.1869359485
C -1.0036147971 -2.7742214375 0.2591358957
C -4.2022976556 -0.6349667682 0.0178388918
C -0.7022526136 -4.2370131596 0.4714899659
H -3.1278857951 -3.1104529755 0.2612551441
H -4.8552453794 -1.5195642941 0.1314536311
H -4.4232354958 0.0757855432 0.8416590517
H -4.4495203874 -0.1173314181 -0.9302766968
H -1.4412515502 -4.8828827724 -0.0395329112
H 0.3174841513 -4.4768281749 0.1172828286
H -0.7509169830 -4.4745286381 1.5559476043
C 2.7368590412 1.6755135358 0.2019653491
C 1.7875876307 2.6091345959 -0.5647964096
H 3.7952090613 1.8008234616 -0.1067493567
H 2.6937733717 1.8790223307 1.2940629580
H 1.9308116891 3.6780012104 -0.3034521721
H 1.9539887635 2.5166826935 -1.6599675269
C 2.8820966152 -1.0360113262 1.3924936620
C 2.9941143747 -0.7397913674 -1.5151592806
C -0.5357350690 2.8717795515 1.2770540882
C -0.9780131318 2.8089786393 -1.5982519484
H 3.9762542758 -0.8703670356 1.4669576490
H 2.6786161777 -2.1112051809 1.2289595391
H 2.4038497475 -0.7247912356 2.3408527319
H 4.0837689928 -0.5351432371 -1.4711766962
H 2.5678548869 -0.2621995307 -2.4182410864
H 2.8448378373 -1.8345913540 -1.5848554753
H 0.2487552789 2.8161693994 2.0575078003
H -0.7891873806 3.9351749319 1.0934265587
H -1.4327681133 2.3318275549 1.6378341627
H -2.0416548696 2.5639462363 -1.4053578234
H -0.8731340461 3.9132106449 -1.6218051820
H -0.6873103579 2.3763054935 -2.5746136822
39
step=35 E=-2646.779292388601 Eh
Co -0.0346490873 -0.1230785496 -0.0617781543
P 2.1587254426 -0.0922771230 0.0101300317
P 0.0318228372 2.0598746995 -0.2550767241
O -1.9307054767 0.0025596126 -0.0575808102
O 0.0218418654 -2.0068697698 0.1917438067
C -2.7448914519 -1.0010903473 0.0445452029
C -2.3491559828 -2.3436813335 0.1978767633
C -1.0093609517 -2.7819808003 0.2673329948
C -4.2076679791 -0.6404492660 -0.0048803617
C -0.7102456474 -4.2459177646 0.4777552736
H -3.1374340998 -3.1063006584 0.2589956675
H -4.8613275158 -1.5282515194 0.0722185255
H -4.4484169697 0.0488343264 0.8309552217
H -4.4335720058 -0.1010311465 -0.9468377087
H -1.4631808788 -4.8915022283 -0.0124192764
H 0.2997000734 -4.4897469032 0.0992438821
H -0.7308169059 -4.4788040702 1.5642050807
C 2.7385462488 1.6721070520 0.2078467769
C 1.7875676245 2.6036740345 -0.5606319844
H 3.7918998752 1.7862203724 -0.1206939067
H 2.7069446249 1.8881032018 1.2973210934
H 1.9339847065 3.6713689332 -0.2955813173
H 1.9525064591 2.5108697792 -1.6554200719
C 2.9068031748 -1.0390289063 1.3897818325
C 2.9761522311 -0.7410732959 -1.5049604786
C -0.5324855610 2.8914365962 1.2849729237
C -0.9809137967 2.7908448835 -1.5900212107
H 4.0062129634 -0.8950756319 1.4198805282
H 2.6723524138 -2.1105373851 1.2431229982
H 2.4720559806 -0.7071582595 2.3523351819
H 4.0682394884 -0.5467883836 -1.4651781668
H 2.5549327938 -0.2560522807 -2.4067003573
H 2.8078957595 -1.8336475181 -1.5687381615
H 0.2256682264 2.7868682515 2.0856409161
H -0.7253215281 3.9686299432 1.1076511232
H -1.4664663451 2.3980221148 1.6181343402
H -2.0412112270 2.5231277476 -1.4071851595
H -0.8927870151 3.8961751857 -1.6146514314
H -0.6825868632 2.3656082013 -2.5676877065
39
step=36 E=-2646.780101128820 Eh
Co -0.0409129733 -0.1305851469 -0.0141219773
P 2.1484164244 -0.1059362890 0.0350355766
P 0.0294865139 2.0533777525 -0.2252460025
O -1.9372762506 -0.0073425409 -0.0575869956
O 0.0149402879 -2.0179966830 0.2098573550
C -2.7534095986 -1.0088134535 0.0413991977
C -2.3563702161 -2.3495532763 0.2119675425
C -1.0193539737 -2.7906840390 0.2878610789
C -4.2156611221 -0.6491341824 -0.0389462826
C -0.7195973098 -4.2523782158 0.5078399493
H -3.1528005333 -3.1037941529 0.2685119951
H -4.8689880334 -1.5399311935 -0.0460652980
H -4.4887425263 -0.0198286475 0.8338346045
H -4.4076446240 -0.0449539853 -0.9484882862
H -1.5061800716 -4.9039805056 0.0839331135
H 0.2616952185 -4.5116856135 0.0682716304
H -0.6644470505 -4.4588261775 1.5984397334
C 2.7415775905 1.6562583988 0.2309173124
C 1.7887414740 2.5908648441 -0.5319882468
H 3.7885406424 1.7579677464 -0.1210975569
H 2.7260992070 1.8789286444 1.3185716525
H 1.9396637366 3.6548253256 -0.2542350004
H 1.9522348202 2.5093186694 -1.6273415214
C 2.9407480507 -1.0632045478 1.3812592862
C 2.9380859986 -0.7345696687 -1.5017645311
C -0.5399839853 2.9221710838 1.2910455939
C -0.9803742790 2.7510055785 -1.5819691197
H 4.0448027231 -0.9701523573 1.3364343256
H 2.6448392829 -2.1239890338 1.2700489949
H 2.5848897463 -0.6956940823 2.3635000480
H 4.0397610031 -0.6184357595 -1.4376242502
H 2.5679913607 -0.1772137100 -2.3839475048
H 2.6845449424 -1.8067535472 -1.6125737114
H 0.1202220815 2.6791377598 2.1462435500
H -0.5609868212 4.0212115831 1.1459422871
H -1.5612206380 2.5607266223 1.5245035730
H -2.0363650373 2.4643528570 -1.4050855704
H -0.8953332398 3.8551143786 -1.6256095027
H -0.6747164261 2.3166539261 -2.5538921892
39
step=37 E=-2646.780310185446 Eh
Co -0.0442454449 -0.1297599487 0.0039384823
P 2.1451618468 -0.1034385992 0.0468826720
P 0.0298260424 2.0537011740 -0.2160959106
O -1.9392685854 -0.0114370877 -0.0631647869
O 0.0152549428 -2.0176356799 0.2161460000
C -2.7535859345 -1.0146747811 0.0340285804
C -2.3558231222 -2.3555630941 0.2035631959
C -1.0183508720 -2.7938278321 0.2887254621
C -4.2151759909 -0.6552820532 -0.0486739324
C -0.7147588602 -4.2543161274 0.5089104834
H -3.1460412027 -3.1158597551 0.2620385264
H -4.8699503083 -1.5447742191 -0.0517675235
H -4.4885110221 -0.0146657937 0.8156112614
H -4.4041656651 -0.0584517056 -0.9640790051
H -1.5035769057 -4.9092654604 0.0943061924
H 0.2628834418 -4.5139996789 0.0613144358
H -0.6489325051 -4.4571394470 1.5996287438
C 2.7443444811 1.6561653805 0.2325670491
C 1.7891590865 2.5894792962 -0.5272451559
H 3.7908876991 1.7539662607 -0.1230382935
H 2.7401080675 1.8867813250 1.3188695099
H 1.9372910796 3.6548858581 -0.2533555464
H 1.9508655547 2.5110739186 -1.6233049865
C 2.9445421684 -1.0667798254 1.3835342735
C 2.9155169361 -0.7325515618 -1.4992556212
C -0.5337055540 2.9421452866 1.2917068157
C -0.9857633573 2.7390865175 -1.5767094360
H 4.0493420782 -1.0170396078 1.3077322426
H 2.6061956164 -2.1175736548 1.2974153182
H 2.6260509115 -0.6750758909 2.3693289277
H 4.0199860425 -0.6550002080 -1.4338428820
H 2.5610836363 -0.1483425324 -2.3707236243
H 2.6186634835 -1.7916092527 -1.6292644790
H 0.1134089223 2.6844000762 2.1526441782
H -0.5248317316 4.0405975680 1.1418481577
H -1.5662933956 2.6106920368 1.5194060662
H -2.0352482428 2.4322386284 -1.3991984184
H -0.9128438149 3.8438557385 -1.6216161362
H -0.6642043372 2.3092108256 -2.5455794116
39
step=38 E=-2646.780410907646 Eh
Co -0.0439797485 -0.1275412925 0.0191465292
P 2.1466390830 -0.1063277971 0.0609333580
P 0.0276367159 2.0542192008 -0.2142317693
O -1.9374405805 -0.0128223202 -0.0636160340
O 0.0218521813 -2.0146347915 0.2226130421
C -2.7503117190 -1.0178891505 0.0315667624
C -2.3498258849 -2.3583792085 0.1953816988
C -1.0110452932 -2.7932625433 0.2859747382
C -4.2116666158 -0.6599061883 -0.0429330036
C -0.7037032308 -4.2530807415 0.4994334803
H -3.1396543589 -3.1186432925 0.2613790747
H -4.8664286539 -1.5492821470 -0.0412176749
H -4.4809403015 -0.0129843392 0.8179245122
H -4.4049948039 -0.0658751075 -0.9594441755
H -1.4983569183 -4.9084827661 0.0970917937
H 0.2673843731 -4.5124991456 0.0373943966
H -0.6203830017 -4.4564124925 1.5889719880
C 2.7400409014 1.6527476336 0.2366826544
C 1.7878679421 2.5851416981 -0.5280184610
H 3.7899912993 1.7530162854 -0.1092098430
H 2.7332035030 1.8771395920 1.3246594327
H 1.9405550334 3.6500380992 -0.2551219968
H 1.9501081145 2.5092798842 -1.6247019320
C 2.9451258384 -1.0747122325 1.3944613246
C 2.8964744601 -0.7369987076 -1.4956873178
C -0.5319305587 2.9603904100 1.2836857267
C -0.9906401961 2.7299960772 -1.5791865521
H 4.0496120840 -1.0518606912 1.3062439246
H 2.5831469038 -2.1187835989 1.3196908580
H 2.6442907345 -0.6724711144 2.3815048861
H 4.0027082499 -0.6977225142 -1.4363902686
H 2.5522577855 -0.1309160251 -2.3565839168
H 2.5657403154 -1.7830698089 -1.6489506127
H 0.1031366798 2.6947836261 2.1513736407
H -0.4968365455 4.0569525965 1.1242599826
H -1.5731800625 2.6541544841 1.5062605019
H -2.0381812107 2.4190173176 -1.4000986901
H -0.9222555762 3.8351280421 -1.6263965055
H -0.6587506024 2.3004819048 -2.5445273627
39
step=39 E=-2646.780455021966 Eh
Co -0.0462155049 -0.1287914261 0.0214786149
P 2.1457791347 -0.1017321574 0.0647508930
P 0.0305010995 2.0514697765 -0.2173242312
O -1.9395098909 -0.0167040680 -0.0620436627
O 0.0191767917 -2.0154773588 0.2282785622
C -2.7521565567 -1.0223431693 0.0330264856
C -2.3525803330 -2.3635165282 0.1931848526
C -1.0126992311 -2.7957368514 0.2847443628
C -4.2137118437 -0.6637790742 -0.0358566388
C -0.7032614552 -4.2561506003 0.4920422563
H -3.1361389447 -3.1298142587 0.2557885317
H -4.8688146402 -1.5529519894 -0.0291104713
H -4.4793974355 -0.0143959419 0.8243731117
H -4.4111729936 -0.0716130731 -0.9526309752
H -1.5018976744 -4.9107864423 0.0965978384
H 0.2634741799 -4.5146077521 0.0202077180
H -0.6082724104 -4.4618010920 1.5802571216
C 2.7426380433 1.6559178586 0.2362849510
C 1.7904253241 2.5850493171 -0.5303704524
H 3.7940046806 1.7550036109 -0.1059405708
H 2.7365340438 1.8906492916 1.3222967279
H 1.9357215269 3.6521788652 -0.2620047991
H 1.9560051805 2.5062602676 -1.6262477180
C 2.9392245336 -1.0715265871 1.3993637452
C 2.8937779373 -0.7394711019 -1.4901793075
C -0.5263084622 2.9590480766 1.2800744839
C -0.9857569629 2.7291009263 -1.5822660029
H 4.0438446582 -1.0579956470 1.3103807232
H 2.5693353019 -2.1129330760 1.3245559553
H 2.6417590871 -0.6665978252 2.3862483865
H 4.0003646636 -0.7073948455 -1.4332955287
H 2.5511362439 -0.1353113287 -2.3529548885
H 2.5583602217 -1.7844568572 -1.6407097639
H 0.1073638943 2.6930248871 2.1487316165
H -0.4856959605 4.0550800831 1.1179325148
H -1.5687932182 2.6571827446 1.5023806981
H -2.0330199035 2.4159452181 -1.4052909636
H -0.9242604344 3.8351168026 -1.6238576063
H -0.6459410935 2.3034830657 -2.5463993417
39
step=40 E=-2646.780490609363 Eh
Co -0.0454930911 -0.1296706301 0.0188757463
P 2.1472378065 -0.1026138857 0.0650340544
P 0.0305519371 2.0493264714 -0.2216156191
O -1.9385861113 -0.0172001484 -0.0610950664
O 0.0193480594 -2.0158264421 0.2321980540
C -2.7511918559 -1.0226912119 0.0345446412
C -2.3516266610 -2.3643675260 0.1915126222
C -1.0118615535 -2.7969071471 0.2835936394
C -4.2128159933 -0.6639484659 -0.0320161275
C -0.7024538257 -4.2579696383 0.4870624044
H -3.1359895355 -3.1300775878 0.2521643691
H -4.8679346978 -1.5530574375 -0.0177436469
H -4.4754689384 -0.0103764957 0.8259588108
H -4.4136729089 -0.0769440963 -0.9513652882
H -1.5052953974 -4.9114366705 0.0984741485
H 0.2597304541 -4.5169633428 0.0061364439
H -0.5967258600 -4.4646197183 1.5740848860
C 2.7420341342 1.6558370708 0.2334819046
C 1.7900642224 2.5832725410 -0.5361768455
H 3.7938429373 1.7563904387 -0.1068869361
H 2.7336637331 1.8919323289 1.3192053305
H 1.9344373334 3.6505891387 -0.2680353768
H 1.9565301974 2.5028990995 -1.6317039184
C 2.9364104465 -1.0692602459 1.4042444888
C 2.8963401407 -0.7478608632 -1.4859894964
C -0.5237061908 2.9550002959 1.2783340166
C -0.9866940569 2.7322875756 -1.5823985371
H 4.0412677147 -1.0591674105 1.3167933708
H 2.5633928841 -2.1096492347 1.3304746437
H 2.6391533818 -0.6609251660 2.3897576596
H 4.0031382342 -0.7170393546 -1.4300161945
H 2.5543217781 -0.1490860381 -2.3526932550
H 2.5612836494 -1.7938944171 -1.6300195857
H 0.1135736904 2.6920428707 2.1452019661
H -0.4871417549 4.0511672935 1.1156825054
H -1.5644291777 2.6496258993 1.5040766558
H -2.0339232294 2.4167711423 -1.4086048071
H -0.9296964291 3.8389063540 -1.6163671265
H -0.6469666406 2.3149570024 -2.5501173061
39
step=41 E=-2646.780549987416 Eh
Co -0.0447559800 -0.1335154550 0.0148978234
P 2.1493693484 -0.1070101324 0.0680601364
P 0.0310326280 2.0428757664 -0.2322393759
O -1.9379497479 -0.0204909919 -0.0558542403
O 0.0192824105 -2.0183344556 0.2433223071
C -2.7507089222 -1.0256073546 0.0395275462
C -2.3504748826 -2.3683310856 0.1876837079
C -1.0109729879 -2.8007979871 0.2814414614
C -4.2127515488 -0.6665630209 -0.0210598714
C -0.7005836085 -4.2629520439 0.4762527405
H -3.1371964648 -3.1322805259 0.2405654977
H -4.8679323394 -1.5554593874 0.0038364196
H -4.4693393341 -0.0090654702 0.8356979414
H -4.4199704243 -0.0853102760 -0.9426331202
H -1.5206777382 -4.9143594782 0.1226130240
H 0.2404004817 -4.5265576816 -0.0432258363
H -0.5476705244 -4.4667286759 1.5581588377
C 2.7403669539 1.6530161327 0.2300212772
C 1.7906730381 2.5761426318 -0.5488962125
H 3.7940053828 1.7555852912 -0.1037676737
H 2.7235384419 1.8931020553 1.3148001202
H 1.9346899145 3.6438746723 -0.2822302451
H 1.9597963481 2.4899301807 -1.6433442965
C 2.9288792099 -1.0683760588 1.4167764082
C 2.9011355393 -0.7697478951 -1.4732680044
C -0.5167305549 2.9455693523 1.2727343822
C -0.9877190530 2.7360543637 -1.5858099484
H 4.0342789101 -1.0624180475 1.3347741841
H 2.5520055343 -2.1074621183 1.3435823198
H 2.6290753212 -0.6547633781 2.3992107478
H 4.0084231854 -0.7547966747 -1.4155529401
H 2.5718299378 -0.1784087759 -2.3497844203
H 2.5561430134 -1.8140261212 -1.6072175101
H 0.1185214588 2.6764733083 2.1390735034
H -0.4746699959 4.0423296271 1.1148603164
H -1.5590455004 2.6440200916 1.4965609396
H -2.0353913639 2.4180099539 -1.4172509078
H -0.9347941808 3.8432104199 -1.6061111519
H -0.6506024590 2.3312460081 -2.5597171822
39
step=42 E=-2646.780577193033 Eh
Co -0.0445662338 -0.1364834737 0.0132913384
P 2.1496711335 -0.1112726674 0.0691425385
P 0.0322654368 2.0392770645 -0.2350043345
O -1.9379748291 -0.0230470173 -0.0549322652
O 0.0189210943 -2.0206937743 0.2485103444
C -2.7506374919 -1.0281409543 0.0385717490
C -2.3503040090 -2.3711875307 0.1849420361
C -1.0112916969 -2.8036661120 0.2819287040
C -4.2126745412 -0.6690304684 -0.0220482409
C -0.7002031770 -4.2656908496 0.4759550053
H -3.1380757326 -3.1343635090 0.2343679598
H -4.8680528567 -1.5575604104 0.0091556615
H -4.4676171040 -0.0062719698 0.8310471413
H -4.4208905830 -0.0935981832 -0.9470841361
H -1.5310919015 -4.9169748793 0.1487613655
H 0.2252123603 -4.5346235369 -0.0685925633
H -0.5154936847 -4.4634774365 1.5539192248
C 2.7414568052 1.6490664588 0.2269780078
C 1.7920082155 2.5700540607 -0.5549018946
H 3.7951438081 1.7511868835 -0.1066481775
H 2.7230243645 1.8913731317 1.3112064796
H 1.9366908188 3.6385359438 -0.2917536518
H 1.9602965662 2.4795040845 -1.6490948514
C 2.9240464054 -1.0689650341 1.4233839102
C 2.9015277352 -0.7816403744 -1.4681851802
C -0.5112646674 2.9411964547 1.2722800091
C -0.9899202409 2.7361570600 -1.5839229136
H 4.0293773490 -1.0704507823 1.3404696708
H 2.5399417621 -2.1058403490 1.3570791306
H 2.6277789906 -0.6468308727 2.4032722794
H 4.0089809425 -0.7746746427 -1.4105551376
H 2.5775439663 -0.1915678612 -2.3475240139
H 2.5498340724 -1.8242205890 -1.5983407687
H 0.1231092749 2.6671686156 2.1376815749
H -0.4653918000 4.0382160924 1.1174267236
H -1.5546591737 2.6431135813 1.4958616062
H -2.0355373399 2.4101696541 -1.4175941990
H -0.9426831034 3.8435631775 -1.5974678909
H -0.6520254481 2.3395861071 -2.5609948251
39
step=43 E=-2646.780628315691 Eh
Co -0.0453795169 -0.1444545223 0.0107693588
P 2.1482224929 -0.1223136790 0.0712722666
P 0.0348885332 2.0315838501 -0.2390634162
O -1.9394821987 -0.0294282297 -0.0524752450
O 0.0164398102 -2.0275272844 0.2569650763
C -2.7522537449 -1.0344246516 0.0356093028
C -2.3524369867 -2.3781702914 0.1806940424
C -1.0145120206 -2.8107085258 0.2851398543
C -4.2141402958 -0.6749663332 -0.0286794493
C -0.7016731998 -4.2719450226 0.4806352588
H -3.1409248597 -3.1409624923 0.2226247968
H -4.8703471948 -1.5622808851 0.0153675589
H -4.4674162294 0.0012076179 0.8140860011
H -4.4219880738 -0.1136384226 -0.9625834338
H -1.5566114104 -4.9228241923 0.2231057377
H 0.1809952402 -4.5563168224 -0.1246718257
H -0.4374261431 -4.4526847542 1.5447224654
C 2.7427792073 1.6382310914 0.2217298290
C 1.7950818367 2.5556124461 -0.5664463643
H 3.7967268741 1.7364412223 -0.1118385060
H 2.7216284284 1.8856846453 1.3046544439
H 1.9443871331 3.6259232100 -0.3136531802
H 1.9599787258 2.4536019274 -1.6602194165
C 2.9142761919 -1.0727828092 1.4354962719
C 2.9035170751 -0.8058124783 -1.4577544264
C -0.4979979773 2.9308546353 1.2738607129
C -0.9953020746 2.7327140204 -1.5802585455
H 4.0196305082 -1.0813782632 1.3541959651
H 2.5233635600 -2.1076468684 1.3802692951
H 2.6191260540 -0.6377990609 2.4101296890
H 4.0106095303 -0.8177091033 -1.3950378929
H 2.5964601129 -0.2164017633 -2.3436592055
H 2.5360421626 -1.8431489742 -1.5870998625
H 0.1353589539 2.6455903478 2.1363918495
H -0.4442950029 4.0283684368 1.1260060611
H -1.5433527370 2.6399160672 1.4978925715
H -2.0372451806 2.3957584288 -1.4127776593
H -0.9534178222 3.8401257488 -1.5865519909
H -0.6585472960 2.3441978279 -2.5611033162
39
step=44 E=-2646.780662118612 Eh
Co -0.0460925058 -0.1525523851 0.0101168705
P 2.1465809721 -0.1331184898 0.0725812049
P 0.0378270176 2.0245738537 -0.2382257268
O -1.9406561333 -0.0354205050 -0.0528871526
O 0.0134014211 -2.0349003436 0.2605838574
C -2.7543611214 -1.0398350856 0.0304152235
C -2.3561244291 -2.3837599196 0.1796533295
C -1.0191473377 -2.8167053843 0.2903505636
C -4.2156501058 -0.6797607679 -0.0417349671
C -0.7059109257 -4.2767832212 0.4911241151
H -3.1452696859 -3.1458825074 0.2211789257
H -4.8730936591 -1.5655740974 0.0117018616
H -4.4702044491 0.0092808968 0.7899710666
H -4.4199055670 -0.1314543566 -0.9843022145
H -1.5776929369 -4.9260325385 0.2938206408
H 0.1376375448 -4.5770442561 -0.1612512326
H -0.3773637232 -4.4418377589 1.5394983335
C 2.7454725264 1.6273059948 0.2174493762
C 1.7978508654 2.5420020814 -0.5732569332
H 3.7985360712 1.7217401069 -0.1198885118
H 2.7264942769 1.8785612903 1.2994255537
H 1.9515662251 3.6141894891 -0.3312346086
H 1.9584774744 2.4302553563 -1.6668378453
C 2.9083230715 -1.0774045491 1.4437807342
C 2.9046142378 -0.8214582977 -1.4528133770
C -0.4876076890 2.9225253511 1.2777460009
C -0.9995242759 2.7260434583 -1.5740236283
H 4.0136582841 -1.0892762257 1.3634194273
H 2.5146121394 -2.1115413776 1.3970814319
H 2.6134700545 -0.6337375349 2.4146604809
H 4.0114904797 -0.8400087715 -1.3890777650
H 2.6023009771 -0.2309133259 -2.3397132204
H 2.5305741145 -1.8564294372 -1.5828230876
H 0.1470956614 2.6318842164 2.1375169650
H -0.4306345285 4.0202400894 1.1329520893
H -1.5333433096 2.6348391639 1.5042734758
H -2.0384209160 2.3816515484 -1.4034355913
H -0.9622190000 3.8335231611 -1.5781149417
H -0.6631866914 2.3416272888 -2.5566793972
39
step=45 E=-2646.780693573725 Eh
Co -0.0480218750 -0.1615049418 0.0111166764
P 2.1435348033 -0.1449571825 0.0742743629
P 0.0394638507 2.0174787672 -0.2352499751
O -1.9425617764 -0.0415978944 -0.0556891093
O 0.0085288910 -2.0434347582 0.2616260804
C -2.7576100143 -1.0451654043 0.0247205209
C -2.3618576309 -2.3889688061 0.1827520191
C -1.0257921171 -2.8232016612 0.2986295889
C -4.2179308135 -0.6842661244 -0.0597739876
C -0.7130707223 -4.2823503186 0.5052859355
H -3.1509682322 -3.1507974224 0.2271117234
H -4.8771163852 -1.5678794110 0.0063070524
H -4.4752236014 0.0221075890 0.7562648995
H -4.4168006264 -0.1541123231 -1.0140132810
H -1.5993780438 -4.9278157166 0.3710321461
H 0.0862367023 -4.6005111880 -0.1934391298
H -0.3193995727 -4.4328072532 1.5328925340
C 2.7465379788 1.6151866284 0.2130164429
C 1.7988676934 2.5285865872 -0.5788109089
H 3.7983843086 1.7040186834 -0.1295823703
H 2.7331844047 1.8707260930 1.2939959574
H 1.9585378354 3.6024392965 -0.3479917052
H 1.9539375647 2.4074427989 -1.6723935098
C 2.9054748242 -1.0834935318 1.4495171253
C 2.9062875374 -0.8363005492 -1.4479365385
C -0.4771312185 2.9137224716 1.2843319277
C -1.0037891158 2.7172382384 -1.5676132279
H 4.0109943103 -1.0914231415 1.3713673751
H 2.5163236032 -2.1194719869 1.4065870545
H 2.6068455297 -0.6372933488 2.4181195433
H 4.0126661747 -0.8553938807 -1.3795473685
H 2.6076298864 -0.2467501251 -2.3368564822
H 2.5311238808 -1.8705381370 -1.5808041777
H 0.1637714672 2.6233085569 2.1396287693
H -0.4226945769 4.0116057830 1.1400562418
H -1.5209058544 2.6244741636 1.5177324350
H -2.0414472736 2.3728547959 -1.3904051742
H -0.9660985858 3.8247473180 -1.5741062575
H -0.6699459553 2.3305114387 -2.5502224143
39
step=46 E=-2646.780717429208 Eh
Co -0.0497240951 -0.1691403283 0.0141688065
P 2.1415946289 -0.1546453921 0.0771054033
P 0.0406090281 2.0106713410 -0.2311542932
O -1.9437059522 -0.0472459319 -0.0603373843
O 0.0041895467 -2.0510441366 0.2609576636
C -2.7605695636 -1.0495353659 0.0211781005
C -2.3672270918 -2.3927692992 0.1891116494
C -1.0315225972 -2.8284006408 0.3061152708
C -4.2198524783 -0.6876639806 -0.0740840059
C -0.7202601520 -4.2872067556 0.5163643378
H -3.1568943507 -3.1534755717 0.2414802593
H -4.8807875980 -1.5692313452 0.0012490736
H -4.4797849977 0.0314746368 0.7298392513
H -4.4138917368 -0.1712391186 -1.0369391199
H -1.6152894835 -4.9281306103 0.4256307591
H 0.0459645945 -4.6183301095 -0.2131924933
H -0.2826169505 -4.4298005109 1.5269161237
C 2.7479335803 1.6051701474 0.2111996271
C 1.7994300988 2.5179147943 -0.5799581671
H 3.7985500722 1.6910827154 -0.1361437590
H 2.7409535945 1.8635150987 1.2915615847
H 1.9625513775 3.5927022938 -0.3556951575
H 1.9513952610 2.3919316253 -1.6735320653
C 2.9059979275 -1.0900626007 1.4533029860
C 2.9057250579 -0.8452796052 -1.4454736180
C -0.4720017016 2.9086844797 1.2883248869
C -1.0041015490 2.7081399806 -1.5633151407
H 4.0117499307 -1.0908935339 1.3778562687
H 2.5245137807 -2.1288395153 1.4079501045
H 2.6020553344 -0.6476988263 2.4220168759
H 4.0121291468 -0.8569638990 -1.3771622615
H 2.6009638114 -0.2567542591 -2.3330418919
H 2.5360820601 -1.8815593720 -1.5778809761
H 0.1740264430 2.6230335326 2.1413715506
H -0.4212066307 4.0063625598 1.1406550101
H -1.5138080773 2.6169957393 1.5273483491
H -2.0428745251 2.3699163978 -1.3812102040
H -0.9631223153 3.8156677317 -1.5747514772
H -0.6732191712 2.3164254419 -2.5448654924
39
step=47 E=-2646.780738868670 Eh
Co -0.0520523879 -0.1762418331 0.0182508305
P 2.1396783012 -0.1641672899 0.0816905894
P 0.0405501335 2.0033065811 -0.2286380708
O -1.9449772462 -0.0533688491 -0.0665840139
O -0.0000741150 -2.0582601920 0.2621855146
C -2.7633322718 -1.0542963612 0.0200162753
C -2.3718891288 -2.3968069551 0.1976972973
C -1.0363532738 -2.8340519386 0.3136353734
C -4.2217582057 -0.6915886190 -0.0837481230
C -0.7263462687 -4.2932460772 0.5235616118
H -3.1622110523 -3.1562084989 0.2573300519
H -4.8842059226 -1.5710013228 0.0030648315
H -4.4827425983 0.0399930932 0.7085225506
H -4.4130012171 -0.1895798087 -1.0548051446
H -1.6279992423 -4.9291746567 0.4727959261
H 0.0070702680 -4.6346900433 -0.2348121443
H -0.2473667801 -4.4316551021 1.5155653952
C 2.7480351903 1.5951327555 0.2100401416
C 1.7992460646 2.5083290328 -0.5805348219
H 3.7979969284 1.6784130035 -0.1401127539
H 2.7464800917 1.8564013477 1.2897904665
H 1.9643908514 3.5833136875 -0.3585513533
H 1.9495259136 2.3806053449 -1.6741729973
C 2.9067685480 -1.0977183351 1.4574806372
C 2.9032848925 -0.8579185369 -1.4402548240
C -0.4680494358 2.9047549015 1.2901854105
C -1.0023930488 2.7004076280 -1.5619015118
H 4.0127213073 -1.0921028958 1.3843851242
H 2.5322029134 -2.1389036813 1.4074600112
H 2.5980395444 -0.6608401188 2.4271114866
H 4.0096291634 -0.8611106410 -1.3706342966
H 2.5935029017 -0.2738853247 -2.3289940140
H 2.5405461590 -1.8970743741 -1.5687337058
H 0.1822567305 2.6243679951 2.1417232469
H -0.4197717827 4.0020161332 1.1381683841
H -1.5083075917 2.6119236889 1.5343958978
H -2.0434456240 2.3706423192 -1.3772911523
H -0.9561992704 3.8078542954 -1.5774289608
H -0.6746295832 2.3032038826 -2.5422217229
39
step=48 E=-2646.780755918960 Eh
Co -0.0538409251 -0.1831167433 0.0230497668
P 2.1387606748 -0.1733794426 0.0877572095
P 0.0411519022 1.9948981147 -0.2277430758
O -1.9457171435 -0.0603371257 -0.0722262346
O -0.0031996151 -2.0653178959 0.2660407869
C -2.7653968367 -1.0596188130 0.0215014783
C -2.3752533695 -2.4014550236 0.2067745084
C -1.0398392146 -2.8400420026 0.3199030363
C -4.2232972518 -0.6960103508 -0.0864360638
C -0.7308053452 -4.3001279706 0.5254582234
H -3.1668079722 -3.1590983704 0.2724531531
H -4.8870338321 -1.5731898154 0.0127162553
H -4.4828283450 0.0463652869 0.6961713651
H -4.4143959127 -0.2071623657 -1.0642172625
H -1.6370877443 -4.9311593667 0.5093838575
H -0.0283665288 -4.6486636749 -0.2589464753
H -0.2148237298 -4.4377386449 1.4986278130
C 2.7490435532 1.5852283457 0.2109310327
C 1.8005336189 2.4985232190 -0.5799926063
H 3.7989655536 1.6676119160 -0.1397305364
H 2.7495162173 1.8487840796 1.2902102901
H 1.9657021370 3.5732078914 -0.3566667905
H 1.9514582171 2.3713570206 -1.6735326841
C 2.9065438282 -1.1060565329 1.4636284279
C 2.8984522686 -0.8720183841 -1.4340144420
C -0.4659672023 2.9033207271 1.2877990843
C -0.9981132442 2.6924799505 -1.5632919363
H 4.0126796603 -1.0955692735 1.3934201309
H 2.5369239379 -2.1488340587 1.4084453554
H 2.5933694445 -0.6743614913 2.4341003902
H 4.0049857969 -0.8699035796 -1.3656650078
H 2.5838250545 -0.2912478599 -2.3230871324
H 2.5396361355 -1.9132748060 -1.5556079322
H 0.1858606963 2.6280813761 2.1398192346
H -0.4180109149 3.9997976122 1.1297900206
H -1.5058307732 2.6118352447 1.5352429359
H -2.0417957819 2.3711447621 -1.3782772879
H -0.9454026266 3.7996142703 -1.5829296989
H -0.6738161436 2.2896131254 -2.5424126235
39
step=49 E=-2646.780765436503 Eh
Co -0.0547904224 -0.1877475340 0.0265055522
P 2.1382609519 -0.1801162116 0.0926088737
P 0.0419354838 1.9887403760 -0.2285741514
O -1.9461636437 -0.0655679494 -0.0752477473
O -0.0046528325 -2.0700368516 0.2716048612
C -2.7662578642 -1.0637728614 0.0241723223
C -2.3766527758 -2.4053046498 0.2132226267
C -1.0414441211 -2.8446389456 0.3242971357
C -4.2241065810 -0.6996516677 -0.0838311671
C -0.7326875296 -4.3056222591 0.5243689384
H -3.1691138998 -3.1619326737 0.2797953787
H -4.8883892063 -1.5753647383 0.0243535729
H -4.4811266578 0.0493829155 0.6931783944
H -4.4167789157 -0.2192204459 -1.0654497681
H -1.6412110154 -4.9335269370 0.5305398922
H -0.0517561876 -4.6573752875 -0.2776186602
H -0.1921853007 -4.4442257173 1.4838059768
C 2.7499322518 1.5776874880 0.2124936169
C 1.8024857878 2.4916100924 -0.5792959695
H 3.8003099122 1.6591053585 -0.1369545220
H 2.7492886544 1.8425099262 1.2915101881
H 1.9666282700 3.5656976197 -0.3526099015
H 1.9547633069 2.3664308885 -1.6727820988
C 2.9046769732 -1.1126532140 1.4691086287
C 2.8941351604 -0.8848208037 -1.4279671112
C -0.4645986283 2.9030668143 1.2839732253
C -0.9940818613 2.6870009442 -1.5662904442
H 4.0108991609 -1.1020511375 1.4001458366
H 2.5349161587 -2.1553123921 1.4127546779
H 2.5903368763 -0.6814930723 2.4394082067
H 4.0007942152 -0.8812527136 -1.3601468727
H 2.5789419397 -0.3070628312 -2.3187174626
H 2.5359291866 -1.9268632323 -1.5435633632
H 0.1861900796 2.6294133810 2.1372984876
H -0.4144349800 3.9988645554 1.1221108492
H -1.5052098087 2.6147872325 1.5320413214
H -2.0389071345 2.3685820439 -1.3824319262
H -0.9376609172 3.7938299248 -1.5878948552
H -0.6710311184 2.2810277666 -2.5445746649
39
step=50 E=-2646.780768865898 Eh
Co -0.0546082350 -0.1901455318 0.0283306064
P 2.1383604161 -0.1835091037 0.0950059642
P 0.0432056375 1.9856014540 -0.2293725468
O -1.9460805912 -0.0680079705 -0.0748643680
O -0.0048413367 -2.0724171460 0.2755985597
C -2.7662757140 -1.0656995501 0.0266172103
C -2.3769093026 -2.4073141483 0.2160146631
C -1.0419141811 -2.8469809851 0.3262299658
C -4.2242270939 -0.7011953955 -0.0796296450
C -0.7333208919 -4.3084439908 0.5230199026
H -3.1698360581 -3.1635876019 0.2814547881
H -4.8886845543 -1.5763183745 0.0321029603
H -4.4792302548 0.0500172890 0.6958839440
H -4.4184418546 -0.2233803366 -1.0622237496
H -1.6425576072 -4.9352481678 0.5352612597
H -0.0594806333 -4.6604076431 -0.2849180849
H -0.1854268530 -4.4485194784 1.4779283875
C 2.7510519285 1.5737547889 0.2149140250
C 1.8047648052 2.4880997259 -0.5777290382
H 3.8019475758 1.6550230648 -0.1329100871
H 2.7478973869 1.8384156600 1.2939609963
H 1.9679681699 3.5617221118 -0.3483327414
H 1.9586669610 2.3647595738 -1.6711348549
C 2.9030396302 -1.1165263312 1.4721347283
C 2.8920011137 -0.8903662013 -1.4254334651
C -0.4650114884 2.9035869805 1.2805279615
C -0.9908908772 2.6829727958 -1.5693063532
H 4.0093065042 -1.1066420643 1.4040651905
H 2.5322244531 -2.1587711332 1.4161556444
H 2.5882878444 -0.6844887946 2.4419251486
H 3.9987810419 -0.8883133481 -1.3586067727
H 2.5775711182 -0.3122051714 -2.3161894199
H 2.5318732392 -1.9318826994 -1.5392805695
H 0.1839507077 2.6305506902 2.1354413256
H -0.4133849942 3.9989546592 1.1164638025
H -1.5063858515 2.6172279809 1.5276399482
H -2.0360000396 2.3651516248 -1.3859659575
H -0.9325537755 3.7895566061 -1.5929830851
H -0.6678623977 2.2745956181 -2.5466318863
39
step=51 E=-2646.780770255299 Eh
Co -0.0541791334 -0.1922426036 0.0294616893
P 2.1384467217 -0.1864309031 0.0963247578
P 0.0444178264 1.9833417810 -0.2297444031
O -1.9458783298 -0.0694419654 -0.0734879239
O -0.0051018794 -2.0743766677 0.2787112330
C -2.7662587382 -1.0668057433 0.0283611774
C -2.3773328042 -2.4086264252 0.2175927556
C -1.0425866766 -2.8486830154 0.3280248731
C -4.2242060433 -0.7018597876 -0.0768738157
C -0.7343386240 -4.3103467501 0.5238310491
H -3.1705301908 -3.1647351824 0.2816197426
H -4.8888762179 -1.5766880365 0.0357567728
H -4.4782014102 0.0499612948 0.6983545480
H -4.4189826749 -0.2245024796 -1.0595898839
H -1.6439478817 -4.9365930796 0.5382423549
H -0.0631991198 -4.6626287917 -0.2862443759
H -0.1839177266 -4.4509575503 1.4771508540
C 2.7519079143 1.5704279337 0.2171527083
C 1.8066794606 2.4855412050 -0.5759055913
H 3.8031682226 1.6512360533 -0.1295792955
H 2.7470663925 1.8346001375 1.2962960793
H 1.9693908759 3.5588361880 -0.3446798914
H 1.9617444569 2.3637298091 -1.6692925276
C 2.9018177424 -1.1200201199 1.4737770027
C 2.8915473104 -0.8938258156 -1.4240234234
C -0.4657914001 2.9028907813 1.2784761657
C -0.9882456529 2.6792569369 -1.5717224433
H 4.0080953711 -1.1115425653 1.4058105932
H 2.5294182321 -2.1617105544 1.4189601092
H 2.5875931691 -0.6864537625 2.4430800589
H 3.9983493487 -0.8921283172 -1.3575584587
H 2.5776126111 -0.3154675487 -2.3148508283
H 2.5306483853 -1.9350591823 -1.5377935307
H 0.1814464962 2.6297839677 2.1346835645
H -0.4131533577 3.9980682269 1.1136407866
H -1.5077883874 2.6174875244 1.5240695489
H -2.0332413059 2.3608347315 -1.3888948908
H -0.9297440785 3.7857542799 -1.5968307479
H -0.6640386713 2.2695595162 -2.5481250475
39
step=52 E=-2646.780771145961 Eh
Co -0.0535015870 -0.1957547203 0.0312666223
P 2.1386620164 -0.1910294512 0.0981280779
P 0.0462528434 1.9797744854 -0.2297469739
O -1.9454508222 -0.0714104956 -0.0708696850
O -0.0058685773 -2.0776653817 0.2826178963
C -2.7664040556 -1.0682270015 0.0308320914
C -2.3783935948 -2.4103856137 0.2198414692
C -1.0440529956 -2.8512873577 0.3308892325
C -4.2241756784 -0.7023657655 -0.0738034968
C -0.7367472632 -4.3131709840 0.5264415162
H -3.1720374611 -3.1661200071 0.2827682784
H -4.8893996593 -1.5766145697 0.0399059291
H -4.4770901984 0.0505106594 0.7007321065
H -4.4191974222 -0.2257870824 -1.0568745440
H -1.6468945418 -4.9386499922 0.5419788321
H -0.0672760851 -4.6661032097 -0.2847527826
H -0.1851843904 -4.4542576015 1.4789792444
C 2.7531202403 1.5653535082 0.2208918055
C 1.8093696346 2.4816289067 -0.5725676777
H 3.8048306126 1.6457381578 -0.1245091559
H 2.7465071273 1.8285980068 1.3002313916
H 1.9717375455 3.5545037778 -0.3391450660
H 1.9661792684 2.3618386512 -1.6659075857
C 2.9009124285 -1.1256964737 1.4755190910
C 2.8916478462 -0.8976119479 -1.4226537711
C -0.4677305021 2.9011368108 1.2759869724
C -0.9839140968 2.6730394853 -1.5752075041
H 4.0072028674 -1.1182508599 1.4077536806
H 2.5273473396 -2.1669531446 1.4213131719
H 2.5870512053 -0.6912174293 2.4445617173
H 3.9984568130 -0.8961765164 -1.3565640078
H 2.5778750846 -0.3183068254 -2.3129614151
H 2.5300708638 -1.9384933817 -1.5374139534
H 0.1777601768 2.6292948541 2.1339228555
H -0.4152934519 3.9961039008 1.1098133166
H -1.5101114480 2.6155202108 1.5196974808
H -2.0291694553 2.3552088413 -1.3929468469
H -0.9246903376 3.7794179181 -1.6030459786
H -0.6580940174 2.2607350396 -2.5499801055
39
step=53 E=-2646.780771632426 Eh
Co -0.0526329128 -0.2024319529 0.0345139860
P 2.1389742497 -0.1997360694 0.1015893176
P 0.0491610531 1.9729547210 -0.2295558915
O -1.9447728682 -0.0751804841 -0.0665303609
O -0.0077674756 -2.0839142960 0.2890174468
C -2.7669896603 -1.0709610757 0.0348165466
C -2.3807818161 -2.4136527579 0.2239056387
C -1.0471128098 -2.8561560982 0.3363578131
C -4.2242973523 -0.7033122112 -0.0698595804
C -0.7417167872 -4.3183279037 0.5326386526
H -3.1752911736 -3.1685426851 0.2860294108
H -4.8906914300 -1.5764476524 0.0454469052
H -4.4758874292 0.0514239256 0.7032796135
H -4.4190333763 -0.2281738551 -1.0537168805
H -1.6528469103 -4.9423176274 0.5511415053
H -0.0752351863 -4.6731855472 -0.2802125081
H -0.1877186924 -4.4594281613 1.4837183228
C 2.7549448198 1.5559231409 0.2271926521
C 1.8135731126 2.4742400080 -0.5667948267
H 3.8073070117 1.6354539548 -0.1163856066
H 2.7464965247 1.8178862478 1.3068131890
H 1.9755996252 3.5464817618 -0.3301802627
H 1.9732151464 2.3574728604 -1.6600294591
C 2.8998667772 -1.1363855918 1.4784166709
C 2.8923598573 -0.9046327947 -1.4198676597
C -0.4711553999 2.8967443260 1.2723233740
C -0.9761708472 2.6622875788 -1.5808455010
H 4.0061580578 -1.1308547309 1.4104722708
H 2.5243554999 -2.1769238880 1.4245273903
H 2.5870497430 -0.7011220099 2.4474693695
H 3.9991535041 -0.9023465870 -1.3540967903
H 2.5779906166 -0.3246731613 -2.3095790837
H 2.5311830215 -1.9455061443 -1.5360083417
H 0.1716537633 2.6271981195 2.1330056271
H -0.4193423218 3.9914417120 1.1042370423
H -1.5140466319 2.6102678746 1.5128056501
H -2.0221586858 2.3459655388 -1.4003095210
H -0.9160442740 3.7685376768 -1.6125597252
H -0.6473089801 2.2462644104 -2.5530038435
39
step=54 E=-2646.780771405193 Eh
Co -0.0517830454 -0.2122504948 0.0392558229
P 2.1394207865 -0.2124473896 0.1069195295
P 0.0529635951 1.9627056064 -0.2292187007
O -1.9438896882 -0.0809006414 -0.0606552751
O -0.0109278311 -2.0931805101 0.2974718472
C -2.7680852235 -1.0751361139 0.0403594752
C -2.3845177839 -2.4185020784 0.2299288042
C -1.0517654676 -2.8634050455 0.3443637127
C -4.2246167386 -0.7047749960 -0.0651250825
C -0.7493417568 -4.3259615155 0.5423101785
H -3.1803767300 -3.1719686677 0.2921562245
H -4.8928272074 -1.5761431034 0.0530328419
H -4.4745109772 0.0530764625 0.7054964177
H -4.4186365064 -0.2324612454 -1.0505175205
H -1.6618625172 -4.9478172695 0.5640093959
H -0.0857958845 -4.6836724022 -0.2717297972
H -0.1931623365 -4.4668715914 1.4921166683
C 2.7572366532 1.5423152741 0.2361005242
C 1.8190856169 2.4632700231 -0.5587046273
H 3.8104657143 1.6208436643 -0.1050924759
H 2.7469332954 1.8027693635 1.3160648687
H 1.9808638515 3.5347019197 -0.3182158012
H 1.9827064974 2.3500646381 -1.6517065128
C 2.8990196895 -1.1520050202 1.4825090130
C 2.8935556161 -0.9147147689 -1.4155688960
C -0.4761890076 2.8897313209 1.2674002824
C -0.9649673526 2.6474186791 -1.5884894963
H 4.0052933918 -1.1487876665 1.4140468457
H 2.5212777967 -2.1916986019 1.4279430804
H 2.5876560541 -0.7168658454 2.4520930020
H 4.0003222169 -0.9115280844 -1.3498340975
H 2.5784055434 -0.3338703426 -2.3044495194
H 2.5332515946 -1.9557084022 -1.5335690295
H 0.1635333916 2.6242113229 2.1316350865
H -0.4261639607 3.9840769092 1.0964814160
H -1.5194280779 2.6012211715 1.5038821032
H -2.0124791471 2.3344494514 -1.4109990948
H -0.9028352957 3.7534572106 -1.6251693009
H -0.6322964385 2.2263032387 -2.5571334692
39
step=55 E=-2646.780771708545 Eh
Co -0.0516529014 -0.2182247534 0.0417119676
P 2.1396795243 -0.2201800673 0.1102169132
P 0.0548300750 1.9563077434 -0.2290596233
O -1.9434944763 -0.0846081722 -0.0577177045
O -0.0131321028 -2.0988734880 0.3016739410
C -2.7689779924 -1.0779196626 0.0431797542
C -2.3869894390 -2.4215894917 0.2334067275
C -1.0547124712 -2.8678741225 0.3491700723
C -4.2249760691 -0.7058698128 -0.0633836722
C -0.7541309322 -4.3305118187 0.5492831082
H -3.1837066986 -3.1740643249 0.2966341982
H -4.8943173965 -1.5762582943 0.0557237383
H -4.4743287352 0.0532427942 0.7061777738
H -4.4180700297 -0.2346744244 -1.0494933659
H -1.6673662602 -4.9512481778 0.5718480784
H -0.0906897013 -4.6901863115 -0.2639758565
H -0.1981685065 -4.4706467542 1.4993629937
C 2.7582642655 1.5341845647 0.2409466213
C 1.8218163544 2.4564066040 -0.5544521898
H 3.8119421517 1.6121976955 -0.0990580411
H 2.7475106880 1.7941452524 1.3210391490
H 1.9837406591 3.5275185757 -0.3126423517
H 1.9874814595 2.3442739990 -1.6472611009
C 2.8986372429 -1.1614238307 1.4849807596
C 2.8947127830 -0.9210479848 -1.4125946020
C -0.4788744261 2.8845226800 1.2651360588
C -0.9586921408 2.6397358431 -1.5921755563
H 4.0048743109 -1.1599905241 1.4158056318
H 2.5192975332 -2.2005330871 1.4296314479
H 2.5885208396 -0.7267120316 2.4551370727
H 4.0014510718 -0.9174815165 -1.3463493627
H 2.5793695026 -0.3401023767 -2.3013190710
H 2.5353748256 -1.9623115548 -1.5314236171
H 0.1589788146 2.6205575335 2.1312273981
H -0.4293714821 3.9787668464 1.0933360758
H -1.5224197017 2.5950697682 1.4990880200
H -2.0072520436 2.3287703843 -1.4172524412
H -0.8955209681 3.7457058243 -1.6304043610
H -0.6239418249 2.2168260625 -2.5593109295
39
step=56 E=-2646.780772310131 Eh
Co -0.0520658490 -0.2228250237 0.0430605505
P 2.1397540805 -0.2260960517 0.1129408740
P 0.0557940155 1.9511492508 -0.2291740313
O -1.9434499546 -0.0879605605 -0.0565921973
O -0.0150493960 -2.1033576229 0.3038874011
C -2.7699073421 -1.0805587638 0.0447455117
C -2.3890033043 -2.4243108616 0.2360687302
C -1.0569988117 -2.8715316994 0.3526583889
C -4.2254817462 -0.7072480575 -0.0629546607
C -0.7577060689 -4.3341436322 0.5549475246
H -3.1863820489 -3.1759479543 0.3008659202
H -4.8956730483 -1.5768999441 0.0569010527
H -4.4745879650 0.0527821449 0.7057849105
H -4.4176852909 -0.2370239895 -1.0496843685
H -1.6713966903 -4.9541391512 0.5780060402
H -0.0938140732 -4.6954572649 -0.2572102117
H -0.2022861867 -4.4732852312 1.5055354351
C 2.7586461613 1.5281125546 0.2437910175
C 1.8233065282 2.4505919070 -0.5526051004
H 3.8126503757 1.6057721117 -0.0953771391
H 2.7477698119 1.7884290377 1.3238219506
H 1.9857314911 3.5217103955 -0.3112319936
H 1.9900592975 2.3376542456 -1.6451828908
C 2.8979719100 -1.1681260815 1.4875042222
C 2.8958113688 -0.9268559234 -1.4094534459
C -0.4797503211 2.8799540800 1.2640609631
C -0.9550124795 2.6354385943 -1.5937465325
H 4.0041899943 -1.1679699926 1.4180319024
H 2.5175574178 -2.2068519259 1.4312155425
H 2.5884298224 -0.7340050958 2.4580744859
H 4.0025170775 -0.9239430485 -1.3421885464
H 2.5812863732 -0.3462055515 -2.2986082371
H 2.5368689431 -1.9682739785 -1.5283355295
H 0.1570297472 2.6163657874 2.1310520132
H -0.4300247977 3.9741728320 1.0920798292
H -1.5235766074 2.5904095816 1.4966390799
H -2.0044259336 2.3260767722 -1.4209119230
H -0.8906991038 3.7413655853 -1.6317621546
H -0.6195609573 2.2122420626 -2.5605157125
39
step=57 E=-2646.780772380861 Eh
Co -0.0524680282 -0.2287036647 0.0446759486
P 2.1397175016 -0.2336820911 0.1163211430
P 0.0572376497 1.9446679899 -0.2293274697
O -1.9434407516 -0.0923909496 -0.0556111417
O -0.0172128451 -2.1090896979 0.3069730148
C -2.7709666320 -1.0840687955 0.0467290375
C -2.3913856081 -2.4278931344 0.2397909945
C -1.0597594487 -2.8762095365 0.3571530893
C -4.2260987107 -0.7093619313 -0.0620894362
C -0.7619747839 -4.3388225719 0.5617036448
H -3.1895804366 -3.1785340961 0.3060782281
H -4.8972418932 -1.5781070320 0.0590972078
H -4.4746708716 0.0521534135 0.7053445955
H -4.4174730902 -0.2406959589 -1.0497099601
H -1.6762739778 -4.9578835832 0.5852100390
H -0.0978972631 -4.7019465997 -0.2494881834
H -0.2071775290 -4.4770926477 1.5127967551
C 2.7593199186 1.5202108219 0.2473516291
C 1.8255151917 2.4429837949 -0.5504765057
H 3.8137945584 1.5972480014 -0.0905421782
H 2.7475822700 1.7809491915 1.3272889225
H 1.9884524401 3.5141081187 -0.3095567544
H 1.9935797554 2.3291366436 -1.6427727686
C 2.8963046035 -1.1764264545 1.4912198618
C 2.8968280379 -0.9348889147 -1.4053190789
C -0.4801267552 2.8746843134 1.2625533789
C -0.9506723778 2.6296846558 -1.5956245674
H 4.0025239586 -1.1779925021 1.4218781908
H 2.5143297058 -2.2145929751 1.4345510145
H 2.5871539523 -0.7421331743 2.4618166318
H 4.0034945098 -0.9327392686 -1.3369395430
H 2.5834943578 -0.3545151487 -2.2950357717
H 2.5379254165 -1.9763426827 -1.5240822431
H 0.1553966841 2.6115629928 2.1306071761
H -0.4299369521 3.9687829732 1.0899356908
H -1.5243266016 2.5854291709 1.4938053889
H -2.0008421567 2.3217619490 -1.4247195861
H -0.8849143819 3.7355148756 -1.6337961519
H -0.6144481675 2.2058312312 -2.5618477856
39
step=58 E=-2646.780772791713 Eh
Co -0.0528638334 -0.2330449390 0.0455921139
P 2.1394865570 -0.2392436820 0.1187976062
P 0.0582982695 1.9399405420 -0.2295374291
O -1.9436042412 -0.0958997667 -0.0555543932
O -0.0187031447 -2.1133381110 0.3090917076
C -2.7717680746 -1.0869091184 0.0479219088
C -2.3930603911 -2.4307311320 0.2426534899
C -1.0617085248 -2.8797476243 0.3603430802
C -4.2266479105 -0.7113707890 -0.0615872752
C -0.7648283177 -4.3423386967 0.5664291950
H -3.1917848484 -3.1807247066 0.3098153673
H -4.8983713457 -1.5795234964 0.0606103653
H -4.4748117149 0.0512868315 0.7048342961
H -4.4175248273 -0.2438854694 -1.0498582290
H -1.6795037093 -4.9608392782 0.5901014729
H -0.1006167872 -4.7066181944 -0.2441271764
H -0.2105788245 -4.4800199242 1.5179249804
C 2.7597586648 1.5144048328 0.2495521057
C 1.8271252397 2.4370150247 -0.5497668375
H 3.8146177030 1.5908122017 -0.0872713161
H 2.7469437226 1.7757726329 1.3293284044
H 1.9905542571 3.5082591545 -0.3097742631
H 1.9959394047 2.3218941885 -1.6418226261
C 2.8942352654 -1.1820226100 1.4946365834
C 2.8974418961 -0.9415808715 -1.4018213501
C -0.4792402356 2.8710121516 1.2616597188
C -0.9483463047 2.6258047280 -1.5963643367
H 4.0004924729 -1.1846637039 1.4260689933
H 2.5112646230 -2.2198323598 1.4380865280
H 2.5847390673 -0.7470796173 2.4648265948
H 4.0040676330 -0.9403176512 -1.3325161262
H 2.5854650534 -0.3615143296 -2.2921986165
H 2.5380191206 -1.9828882294 -1.5202326069
H 0.1555862671 2.6078406244 2.1302072834
H -0.4282217462 3.9649803398 1.0884927770
H -1.5237694406 2.5826101508 1.4924858680
H -1.9988408027 2.3186325424 -1.4261056635
H -0.8814244430 3.7315417885 -1.6344862551
H -0.6120752936 2.2016115778 -2.5624308819
