76
Properties=species:S:1:pos:R:3 Co(acac)(iPr2P-propylene-P(p-Anisyl)2)+;=T plausible=T initial=T 3D=T XYZ=T geometry,=T cationic=T Co(II)=T precursor-like=T complex=T pbc="F F F" explicit_bonds=b0_2_1,b0_3_1,b0_4_1,b2_61_1,b3_5_1,b4_7_1,b5_6_1,b5_8_1,b6_7_2,b6_10_1,b7_9_1,b8_11_1,b8_12_1,b8_13_1,b9_14_1,b9_15_1,b9_16_1,b17_18_1,b17_20_1,b17_21_1,b18_22_1,b18_23_1,b19_24_1,b25_46_1,b26_27_1,b26_28_1,b26_29_1,b27_30_1,b27_31_1,b27_32_1,b28_33_1,b28_34_1,b28_35_1,b36_37_1,b36_38_1,b36_39_1,b37_40_1,b37_41_1,b37_42_1,b38_43_1,b38_44_1,b38_45_1,b46_47_1,b46_51_2,b47_48_2,b47_52_1,b48_49_1,b48_53_1,b49_50_2,b49_56_1,b50_51_1,b50_54_1,b51_55_1,b56_57_1,b57_58_1,b57_59_1,b57_60_1,b61_62_2,b61_66_1,b62_63_1,b62_67_1,b63_64_2,b63_68_1,b64_65_1,b64_71_1,b65_66_2,b65_69_1,b66_70_1,b71_72_1,b72_73_1,b72_74_1,b72_75_1
Co       0.00000000       0.00000000       0.00000000
P        2.15943209       0.00000000       0.04952826
P        0.00000000       2.18000000      -0.05000000
O       -1.88000000       0.00000000       0.05000000
O        0.00000000      -1.88000000      -0.05000000
C       -2.75000000      -0.85000000       0.05000000
C       -2.00000000      -2.00000000       0.00000000
C       -0.85000000      -2.75000000      -0.05000000
C       -4.20000000      -0.65000000       0.10000000
C       -0.65000000      -4.20000000      -0.10000000
H       -2.25000000      -2.25000000       1.05000000
H       -4.65000000      -1.20000000       0.90000000
H       -4.50000000       0.40000000       0.25000000
H       -4.70000000      -1.00000000      -0.82500000
H       -1.20000000      -4.65000000      -0.90000000
H        0.40000000      -4.50000000      -0.25000000
H       -1.00000000      -4.70000000       0.82500000
C        2.05000000       1.71000000       0.62000000
C        1.19000000       2.54000000       1.52000000
C        0.54000000       3.54000000       0.58000000
H        3.02000000       2.13000000       0.93000000
H        1.60000000       1.63000000      -0.38000000
H        1.83000000       3.08000000       2.23000000
H        0.39000000       1.94000000       1.98000000
H        1.29000000       4.30000000       0.31000000
H       -0.35000000       4.03000000       0.99000000
C        3.60000000      -0.85000000       0.85000000
C        4.72000000      -0.05000000       1.42000000
C        3.25000000      -1.85000000       1.95000000
H        3.98000000      -1.35000000      -0.02000000
H        4.98000000       0.75000000       0.72000000
H        5.61000000      -0.66000000       1.63000000
H        4.41000000       0.40000000       2.38000000
H        2.47000000      -2.50000000       1.54000000
H        4.14000000      -2.48000000       2.13000000
H        2.91000000      -1.35000000       2.88000000
C        2.90000000      -1.10000000      -1.30000000
C        4.20000000      -0.65000000      -1.95000000
C        2.50000000      -2.50000000      -1.85000000
H        3.09000000      -1.21000000      -0.21000000
H        4.50000000       0.35000000      -1.60000000
H        5.03000000      -1.34000000      -1.80000000
H        4.05000000      -0.63000000      -3.04000000
H        1.63000000      -2.85000000      -1.28000000
H        3.33000000      -3.21000000      -1.80000000
H        2.20000000      -2.45000000      -2.90000000
C       -0.82000000       3.60000000       0.90000000
C       -2.10000000       3.90000000       1.35000000
C       -2.82000000       5.03000000       0.95000000
C       -2.25000000       5.90000000       0.07000000
C       -0.97000000       5.60000000      -0.38000000
C       -0.25000000       4.47000000       0.02000000
H       -2.54000000       3.22000000       2.03000000
H       -3.85000000       5.27000000       1.30000000
H       -0.54000000       6.28000000      -1.06000000
H        0.78000000       4.23000000      -0.33000000
O       -2.98000000       7.03000000      -0.34000000
C       -2.45000000       7.96000000      -1.28000000
H       -3.26000000       8.60000000      -1.65000000
H       -1.62000000       8.57000000      -0.90000000
H       -2.12000000       7.46000000      -2.20000000
C       -1.15000000       2.90000000      -1.25000000
C       -1.10000000       3.50000000      -2.52000000
C       -2.15000000       3.60000000      -3.45000000
C       -3.25000000       3.10000000      -3.10000000
C       -3.30000000       2.50000000      -1.83000000
C       -2.25000000       2.40000000      -0.90000000
H       -0.25000000       3.90000000      -2.80000000
H       -2.10000000       4.05000000      -4.45000000
H       -4.20000000       2.10000000      -1.55000000
H       -2.30000000       1.95000000       0.10000000
O       -4.27000000       3.18000000      -4.04000000
C       -5.42000000       2.62000000      -4.68000000
H       -5.20000000       2.50000000      -5.75000000
H       -6.25000000       3.31000000      -4.50000000
H       -5.72000000       1.64000000      -4.28000000
