80
1 2 Before single point calculation
Co 0.000000000 0.000000000 0.000000000
P 2.159432326 0.000000000 0.049528265
P 0.000000000 2.180000108 -0.050000003
O -1.880000077 0.000000000 0.050000003
O 0.000000000 -1.880000077 -0.050000003
C -2.749999990 -0.850000067 0.050000003
C -2.000000039 -2.000000039 0.000000000
C -0.850000067 -2.749999990 -0.050000003
C -4.199999930 -0.649999962 0.100000005
C -0.649999962 -4.199999930 -0.100000005
H -2.250000107 -2.250000107 1.049999982
H -4.650000102 -1.200000124 0.899999967
H -4.500000213 0.400000020 0.250000005
H -4.700000066 -1.000000019 -0.825000022
H -1.200000124 -4.650000102 -0.899999967
H 0.400000020 -4.500000213 -0.250000005
H -1.000000019 -4.700000066 0.825000022
C 2.050000002 1.710000025 0.620000035
C 1.190000106 2.539999994 1.520000065
C 0.540000018 3.540000013 0.579999963
H 3.020000094 2.130000145 0.930000020
H 1.600000081 1.630000009 -0.380000016
H 1.830000114 3.079999948 2.230000071
H 0.390000034 1.940000058 1.980000003
H 1.290000032 4.300000361 0.310000017
H -0.349999994 4.030000257 0.990000001
C 3.599999868 -0.850000067 0.850000067
C 4.719999849 -0.050000003 1.420000012
C 3.250000126 -1.850000023 1.950000076
H 3.980000042 -1.350000013 -0.020000000
H 4.980000061 0.750000014 0.720000024
H 5.610000303 -0.660000043 1.630000009
H 4.410000179 0.400000020 2.380000213
H 2.469999995 -2.500000174 1.539999974
H 4.139999823 -2.480000139 2.130000145
H 2.910000023 -1.350000013 2.880000096
C 2.900000132 -1.100000072 -1.299999924
C 4.199999930 -0.649999962 -1.950000076
C 2.500000174 -2.500000174 -1.850000023
H 3.090000092 -1.210000016 -0.210000012
H 4.500000213 0.349999994 -1.600000081
H 5.030000529 -1.340000122 -1.799999934
H 4.050000293 -0.629999989 -3.040000129
H 1.630000009 -2.849999916 -1.280000015
H 3.330000016 -3.210000054 -1.799999934
H 2.200000143 -2.450000211 -2.900000132
C -0.850000067 3.599999868 0.899999967
C -2.130000145 3.950000114 0.150000016
C -2.760000134 5.150000238 0.860000022
C -1.780000024 6.280000111 1.119999981
C -0.500000010 5.929999865 1.870000059
C 0.129999996 4.730000245 1.159999927
H -1.150000035 3.099999984 1.780000024
H -2.869999952 3.150000200 0.029999998
H -1.880000077 4.210000074 -0.890000012
H -3.670000119 5.510000376 0.360000012
H -3.059999913 4.820000280 1.870000059
H -2.250000107 7.150000277 1.600000081
H -1.479999993 6.630000358 0.120000009
H -0.730000042 5.699999833 2.930000059
H 0.219999999 6.750000067 1.780000024
H 1.039999965 4.389999890 1.679999972
H 0.439999997 5.050000312 0.150000016
C -1.150000035 2.900000132 -1.299999924
C -1.950000076 3.980000042 -2.050000002
C -3.369999835 3.499999941 -2.350000033
C -4.170000255 2.749999990 -1.280000015
C -3.369999835 1.669999954 -0.530000063
C -1.950000076 2.150000180 -0.230000016
H -0.320000004 3.180000127 -1.980000003
H -1.420000012 4.420000070 -2.900000132
H -2.000000039 4.800000496 -1.320000086
H -3.930000078 4.340000432 -2.790000061
H -3.350000052 2.849999916 -3.239999982
H -5.190000310 2.400000248 -1.529999956
H -4.280000073 3.390000124 -0.390000034
H -3.339999908 1.019999992 -1.420000012
H -3.900000151 1.169999944 0.289999982
H -1.380000067 1.299999924 0.179999990
H -1.980000003 2.770000026 0.680000016
80
step=1 E=-3231.873122230419 Eh
Co 0.0000000000 0.0000000000 0.0000000000
P 2.1594320928 0.0000000000 0.0495282617
P 0.0000000000 2.1799999992 -0.0500000020
O -1.8800000031 0.0000000000 0.0500000020
O 0.0000000000 -1.8800000031 -0.0500000020
C -2.7500000039 -0.8500000022 0.0500000020
C -2.0000000005 -2.0000000005 0.0000000000
C -0.8500000022 -2.7500000039 -0.0500000020
C -4.2000000036 -0.6499999995 0.0999999987
C -0.6499999995 -4.2000000036 -0.0999999987
H -2.2499999999 -2.2499999999 1.0499999996
H -4.6500000004 -1.2000000003 0.8999999989
H -4.4999999997 0.4000000001 0.2499999994
H -4.7000000024 -1.0000000029 -0.8249999985
H -1.2000000003 -4.6500000004 -0.8999999989
H 0.4000000001 -4.4999999997 -0.2499999994
H -1.0000000029 -4.7000000024 0.8249999985
C 2.0500000025 1.7099999984 0.6200000015
C 1.1900000009 2.5400000019 1.5200000003
C 0.5400000014 3.5399999995 0.5799999988
H 3.0200000020 2.1300000025 0.9300000022
H 1.6000000004 1.6299999984 -0.3800000014
H 1.8300000011 3.0800000034 2.2300000012
H 0.3900000008 1.9399999991 1.9800000018
H 1.2899999996 4.3000000023 0.3100000007
H -0.3499999981 4.0300000042 0.9899999982
C 3.6000000008 -0.8500000022 0.8500000022
C 4.7200000011 -0.0500000020 1.4200000016
C 3.2500000027 -1.8499999998 1.9499999985
H 3.9800000022 -1.3500000010 -0.0199999987
H 4.9799999998 0.7499999982 0.7200000002
H 5.6100000006 -0.6599999988 1.6299999984
H 4.4100000004 0.4000000001 2.3800000019
H 2.4700000012 -2.4999999993 1.5399999990
H 4.1400000023 -2.4800000006 2.1300000025
H 2.9100000040 -1.3500000010 2.8800000007
C 2.8999999993 -1.1000000016 -1.2999999990
C 4.2000000036 -0.6499999995 -1.9499999985
C 2.4999999993 -2.4999999993 -1.8499999998
H 3.0900000027 -1.2099999996 -0.2100000020
H 4.4999999997 0.3499999981 -1.6000000004
H 5.0300000018 -1.3400000016 -1.8000000031
H 4.0500000029 -0.6300000008 -3.0400000007
H 1.6299999984 -2.8500000026 -1.2800000003
H 3.3300000028 -3.2100000001 -1.8000000031
H 2.2000000032 -2.4500000025 -2.8999999993
C -0.8500000022 3.6000000008 0.8999999989
C -2.1300000025 3.9500000042 0.1500000007
C -2.7600000033 5.1500000045 0.8600000015
C -1.7799999991 6.2800000041 1.1200000003
C -0.4999999988 5.9300000007 1.8699999984
C 0.1300000020 4.7300000004 1.1600000029
H -1.1499999983 3.1000000020 1.7799999991
H -2.8700000013 3.1500000040 0.0299999980
H -1.8800000031 4.2100000030 -0.8899999995
H -3.6700000015 5.5100000019 0.3600000027
H -3.0599999994 4.8199999998 1.8699999984
H -2.2499999999 7.1500000050 1.6000000004
H -1.4800000030 6.6300000022 0.1200000027
H -0.7299999995 5.7000000053 2.9300000027
H 0.2200000014 6.7500000049 1.7799999991
H 1.0400000002 4.3900000017 1.6800000004
H 0.4400000027 5.0500000005 0.1500000007
C -1.1499999983 2.8999999993 -1.2999999990
C -1.9499999985 3.9800000022 -2.0500000025
C -3.3700000001 3.5000000021 -2.3499999986
C -4.1700000003 2.7500000039 -1.2800000003
C -3.3700000001 1.6700000010 -0.5300000021
C -1.9499999985 2.1500000012 -0.2300000007
H -0.3200000001 3.1800000021 -1.9800000018
H -1.4200000016 4.4199999997 -2.8999999993
H -2.0000000005 4.8000000011 -1.3200000029
H -3.9300000002 4.3399999997 -2.7900000013
H -3.3500000014 2.8500000026 -3.2400000034
H -5.1900000019 2.4000000006 -1.5299999997
H -4.2800000036 3.3900000041 -0.3900000008
H -3.3400000021 1.0200000016 -1.4200000016
H -3.9000000022 1.1700000023 0.2900000021
H -1.3799999990 1.2999999990 0.1799999987
H -1.9800000018 2.7700000026 0.6800000028
80
step=2 E=-3232.484498924906 Eh
Co -0.0079689779 -0.0347851872 -0.0169081421
P 2.1649056449 -0.0239308532 0.0399795422
P 0.0042026489 2.1742081432 -0.0719005994
O -1.9069299130 -0.1055045262 0.0294970903
O 0.0168592086 -1.9312856248 -0.0548789317
C -2.7800462310 -0.9922461683 0.0343725507
C -2.0648188545 -2.1711646991 -0.0030680291
C -0.8484047394 -2.8252925715 -0.0487070075
C -4.2345170109 -0.7685780213 0.0810748572
C -0.5846705931 -4.2688164003 -0.0922611092
H -2.3154502839 -2.4530480728 1.0492539797
H -4.6923073147 -1.3105506340 0.8919261656
H -4.5212330794 0.3039632217 0.2176707748
H -4.7372819661 -1.1220761746 -0.8396288687
H -1.1186288451 -4.7468609264 -0.8954664666
H 0.4781644354 -4.5183708644 -0.2395617531
H -0.9135161133 -4.7773086514 0.8350912773
C 2.0886762723 1.7026662970 0.5994372852
C 1.2274357586 2.5482004263 1.5124864018
C 0.5811902778 3.5748479149 0.5772161963
H 3.0692819367 2.1098657034 0.8957566879
H 1.6311376882 1.6378847940 -0.4041863995
H 1.8786005026 3.0888343968 2.2203122694
H 0.4291203400 1.9563091416 1.9873388740
H 1.3547910075 4.3143750538 0.2863785403
H -0.3185278994 4.1466145518 1.0315804074
C 3.6129232331 -0.8747098757 0.8694439260
C 4.7451693378 -0.0700067904 1.4405770012
C 3.2506612249 -1.8666045857 1.9793209773
H 3.9998582255 -1.3905722013 -0.0051115806
H 5.0196824521 0.7256157535 0.7389076416
H 5.6283984300 -0.6879925430 1.6567651510
H 4.4394920654 0.3917176008 2.3963499807
H 2.4664652937 -2.5219425401 1.5811474988
H 4.1341217561 -2.5002878853 2.1728263902
H 2.9104437063 -1.3555281434 2.9004897911
C 2.8916636743 -1.1377404966 -1.3214719920
C 4.1933870394 -0.6940302436 -1.9760403161
C 2.4765623822 -2.5287200589 -1.8703951526
H 3.0874880456 -1.2466528295 -0.2104253502
H 4.5049744516 0.3033241877 -1.6298013366
H 5.0195195781 -1.3941055490 -1.8259137064
H 4.0418616831 -0.6711454328 -3.0660251897
H 1.6068315669 -2.8767396529 -1.3001802344
H 3.3066507225 -3.2411214036 -1.8195680442
H 2.1733293537 -2.4788609571 -2.9219682813
C -0.8809591711 3.6664434976 0.9333216287
C -2.1797357775 4.0539786992 0.1898441746
C -2.7777951311 5.2729425562 0.9142101216
C -1.7802280298 6.4043318401 1.1809176141
C -0.4880351480 6.0544811154 1.9267545120
C 0.1680510919 4.8617726981 1.2058045364
H -1.1779889159 3.1694320389 1.8273407107
H -2.9417359346 3.2968041142 0.0720168915
H -1.9142845798 4.2783651725 -0.8858666242
H -3.6835037124 5.6525148833 0.4198638345
H -3.0797532313 4.9391560307 1.9247718646
H -2.2534008721 7.2689111831 1.6694867902
H -1.4788561891 6.7653955124 0.1830580286
H -0.7139154125 5.8158154118 2.9851202896
H 0.2266553019 6.8806261701 1.8411849996
H 1.0914273278 4.5542065457 1.7445743380
H 0.4687556809 5.2183118367 0.2013909524
C -1.1646524194 2.8911074178 -1.3400493038
C -1.9747469058 4.0114737251 -2.0934180473
C -3.3948983582 3.5096971816 -2.3910924837
C -4.1976522089 2.7429555539 -1.3210240173
C -3.3778138686 1.6410676102 -0.5715918506
C -1.9562480995 2.1232458583 -0.2638012180
H -0.3254726612 3.1608406700 -2.0150611617
H -1.4340828377 4.4417479895 -2.9449221241
H -2.0257188942 4.8712733207 -1.3620081964
H -3.9606187029 4.3431134398 -2.8384704325
H -3.3631618217 2.8504821138 -3.2754087134
H -5.2103378949 2.3837493621 -1.5814958520
H -4.3278091190 3.3872813947 -0.4363709012
H -3.3345447792 0.9956332920 -1.4639818079
H -3.9059172454 1.1194019015 0.2497073280
H -1.3892766579 1.2748265484 0.1505313432
H -1.9888742364 2.7200880218 0.6439821542
