39
1 2 Before single point calculation
Co 0.000000000 0.000000000 0.000000000
P 2.140000036 0.000000000 0.000000000
P 0.000000000 2.150000180 0.000000000
O -1.850000023 0.000000000 0.050000003
O 0.000000000 -1.850000023 -0.050000003
C -2.799999953 -0.850000067 0.050000003
C -2.000000039 -2.000000039 0.000000000
C -0.850000067 -2.799999953 -0.050000003
C -4.249999893 -0.649999962 0.100000005
C -0.649999962 -4.249999893 -0.100000005
H -2.250000107 -2.250000107 1.049999982
H -4.650000102 -1.200000124 0.949999993
H -4.550000176 0.400000020 0.200000010
H -4.750000029 -1.049999982 -0.800000041
H -1.200000124 -4.650000102 -0.949999993
H 0.400000020 -4.550000176 -0.200000010
H -1.049999982 -4.750000029 0.800000041
C 2.050000002 1.549999992 0.949999993
C 1.799999934 2.250000107 -0.349999994
H 2.950000095 2.099999965 1.250000087
H 1.200000124 1.479999993 1.650000044
H 2.350000033 3.150000200 -0.050000003
H 1.850000023 2.150000180 -1.450000066
C 3.650000083 -0.800000041 0.750000014
C 2.950000095 -1.100000072 -1.250000087
C -0.800000041 3.650000083 0.750000014
C -1.100000072 2.950000095 -1.250000087
H 4.000000077 -0.250000005 1.650000044
H 4.400000287 -0.800000041 -0.050000003
H 3.450000231 -1.850000023 1.000000019
H 3.300000089 -0.649999962 -2.200000143
H 1.850000023 -1.049999982 -1.250000087
H 3.300000089 -2.150000180 -1.200000124
H -0.250000005 4.000000077 1.650000044
H -0.800000041 4.400000287 -0.050000003
H -1.850000023 3.450000231 1.000000019
H -0.649999962 3.300000089 -2.200000143
H -1.049999982 1.850000023 -1.250000087
H -2.150000180 3.300000089 -1.200000124
39
step=1 E=-2646.109404141938 Eh
Co 0.0000000000 0.0000000000 0.0000000000
P 2.1400000018 0.0000000000 0.0000000000
P 0.0000000000 2.1500000012 0.0000000000
O -1.8499999998 0.0000000000 0.0500000020
O 0.0000000000 -1.8499999998 -0.0500000020
C -2.8000000006 -0.8500000022 0.0500000020
C -2.0000000005 -2.0000000005 0.0000000000
C -0.8500000022 -2.8000000006 -0.0500000020
C -4.2500000003 -0.6499999995 0.0999999987
C -0.6499999995 -4.2500000003 -0.0999999987
H -2.2499999999 -2.2499999999 1.0499999996
H -4.6500000004 -1.2000000003 0.9500000009
H -4.5500000017 0.4000000001 0.2000000027
H -4.7500000044 -1.0499999996 -0.8000000002
H -1.2000000003 -4.6500000004 -0.9500000009
H 0.4000000001 -4.5500000017 -0.2000000027
H -1.0499999996 -4.7500000044 0.8000000002
C 2.0500000025 1.5499999984 0.9500000009
C 1.8000000031 2.2499999999 -0.3499999981
H 2.9500000013 2.0999999992 1.2500000023
H 1.2000000003 1.4800000030 1.6500000024
H 2.3499999986 3.1500000040 -0.0500000020
H 1.8499999998 2.1500000012 -1.4499999997
C 3.6500000028 -0.8000000002 0.7499999982
C 2.9500000013 -1.1000000016 -1.2500000023
C -0.8000000002 3.6500000028 0.7499999982
C -1.1000000016 2.9500000013 -1.2500000023
H 4.0000000009 -0.2499999994 1.6500000024
H 4.4000000010 -0.8000000002 -0.0500000020
H 3.4500000001 -1.8499999998 1.0000000029
H 3.2999999994 -0.6499999995 -2.2000000032
H 1.8499999998 -1.0499999996 -1.2500000023
H 3.2999999994 -2.1500000012 -1.2000000003
H -0.2499999994 4.0000000009 1.6500000024
H -0.8000000002 4.4000000010 -0.0500000020
H -1.8499999998 3.4500000001 1.0000000029
H -0.6499999995 3.2999999994 -2.2000000032
H -1.0499999996 1.8499999998 -1.2500000023
H -2.1500000012 3.2999999994 -1.2000000003
39
step=2 E=-2646.283310707970 Eh
Co -0.0031470549 -0.0055900720 0.0031813649
P 2.1526988694 0.0337629451 0.0033965188
P 0.0292134650 2.1667584963 0.0097430964
O -1.8728332554 0.0152022545 0.0505019207
O 0.0095190802 -1.8731607604 -0.0511068291
C -2.8091452758 -0.8731788799 0.0495393383
C -2.0952725632 -2.0898345443 0.0027615904
C -0.8828193347 -2.8062928574 -0.0512623850
C -4.2556730204 -0.6316071351 0.0997079753
C -0.6459143496 -4.2535329726 -0.1074796556
H -2.3459229731 -2.3851367979 1.0576258463
H -4.6787445958 -1.1705054449 0.9552413640
H -4.5174000610 0.4318951222 0.1972968593
H -4.7627137968 -1.0209853957 -0.8030432169
H -1.1889260294 -4.6686442257 -0.9635687346
H 0.4166104036 -4.5179089302 -0.2085181360
H -1.0335496656 -4.7662518084 0.7935055113
C 2.1478574304 1.5888703309 0.9683152016
C 1.8295166441 2.3468099334 -0.3376156446
H 3.0555938019 2.1314411083 1.2725476721
H 1.3138275790 1.4804593233 1.6839639824
H 2.3591612724 3.2752979005 -0.0648110212
H 1.8565574858 2.2370539830 -1.4367375938
C 3.6646324005 -0.7661261304 0.8317418163
C 2.8793549202 -1.0952619054 -1.3335933572
C -0.7777187240 3.6616999960 0.8310704773
C -1.0856186210 2.8737131538 -1.3420819901
H 3.9919217273 -0.1903335172 1.7262855130
H 4.4528152762 -0.7990740141 0.0727488727
H 3.4567593290 -1.8095981731 1.1172049483
H 3.2030156133 -0.6829912864 -2.3107464439
H 1.7705238120 -1.0988344004 -1.3730630187
H 3.2132045472 -2.1476003435 -1.2757381925
H -0.2212401828 3.9936025436 1.7385236246
H -0.8028623780 4.4499423397 0.0727479159
H -1.8210951454 3.4346606511 1.0951850691
H -0.6338054102 3.2053129306 -2.2976562373
H -1.0848432745 1.7619726610 -1.4035346523
H -2.1420486007 3.1947585136 -1.3216606469
39
step=3 E=-2646.488419652988 Eh
Co -0.0005534068 -0.0069646883 0.0279469610
P 2.1789772680 0.0408462452 0.0031467768
P 0.0294493124 2.2015771966 0.0144854502
O -1.8834269744 0.0443385860 0.0719304081
O 0.0196133304 -1.8817683173 -0.0345084365
C -2.7642858859 -0.9069274659 0.0799153590
C -2.2853257330 -2.2555804837 0.0651978268
C -0.9472549523 -2.7476462051 -0.0255746999
C -4.1997451046 -0.5713049397 0.1185380750
C -0.6315709695 -4.1859117733 -0.1213808664
H -2.5913958368 -2.7178391552 1.0619404231
H -4.6780898460 -1.0662062106 0.9862065390
H -4.3690238679 0.5167951006 0.1928293342
H -4.7172622002 -0.9494926359 -0.7861682114
H -1.1702537147 -4.6214531896 -0.9833199421
H 0.4505443003 -4.3636485432 -0.2456099134
H -0.9741025342 -4.7386015674 0.7786542928
C 2.2793763911 1.6414429635 0.9353439940
C 1.8270674978 2.5082443171 -0.3290830187
H 3.1981468318 2.1672305525 1.2473174567
H 1.4633924515 1.4752697133 1.6632518857
H 2.2830574075 3.4957644044 -0.1052321466
H 1.8413442298 2.3572674977 -1.4236464485
C 3.6378898353 -0.8027021548 0.9214767792
C 2.8574734769 -1.0726531777 -1.4088728673
C -0.7950122365 3.6391478498 0.9162367433
C -1.0689540888 2.7718726973 -1.4355626853
H 3.9611057370 -0.2313307874 1.8149201222
H 4.4438769978 -0.8707627890 0.1753216085
H 3.3897870854 -1.8396296329 1.2268037200
H 3.1938219439 -0.7073629743 -2.4012221429
H 1.7592453775 -1.1854866866 -1.5738867970
H 3.2066655953 -2.1085410151 -1.2485226047
H -0.2553820414 3.9835279310 1.8255611805
H -0.8512885066 4.4353618747 0.1589259824
H -1.8246921577 3.3414971168 1.1870326720
H -0.5954269407 3.1159886290 -2.3765303330
H -1.1369824363 1.6690110086 -1.6335695532
H -2.1331099977 3.0602875330 -1.3877614272
39
step=4 E=-2646.621142548193 Eh
Co -0.0005378351 -0.0185470324 0.0870431163
P 2.2149925711 0.0429229776 -0.0109624652
P 0.0262404871 2.2384249750 -0.0027567962
O -1.8850413965 0.0218028887 0.1283760759
O 0.0036557601 -1.8921129108 0.0143581329
C -2.6773956190 -0.9961985975 0.1763916782
C -2.4522103208 -2.4175867787 0.2160900805
C -1.0372466792 -2.6579171343 0.0618655042
C -4.1160176251 -0.5864192027 0.1539759361
C -0.6609495024 -4.0941703737 -0.1387970015
H -2.9043331314 -3.1577271721 0.9125674592
H -4.6515572943 -1.0260684756 1.0235671341
H -4.2253294767 0.5135818823 0.1777031331
H -4.6170040739 -0.9853341379 -0.7512152270
H -1.2209672664 -4.5144202854 -0.9986924821
H 0.4245674241 -4.2038930051 -0.3160325539
H -0.9438278769 -4.7052167552 0.7451555617
C 2.4817829462 1.7144145941 0.7903541366
C 1.8209765378 2.6257407630 -0.3569982747
H 3.4444565636 2.1873391980 1.0536301541
H 1.7326029916 1.5251399548 1.5842481040
H 2.1760322808 3.6675686254 -0.2085888502
H 1.8351648827 2.3809148011 -1.4352747538
C 3.5274573319 -0.8282023669 1.1056183273
C 2.7738792509 -0.9595931130 -1.5404037565
C -0.7846307269 3.6043045865 0.9997694710
C -1.0002033415 2.6389582864 -1.5372316534
H 3.7962865804 -0.2149859458 1.9851016084
H 4.4011632233 -0.9851343778 0.4529370690
H 3.1903710801 -1.8251474906 1.4611415426
H 3.0966485523 -0.4697565751 -2.4815718658
H 1.7139849015 -1.2000598990 -1.8128568509
H 3.2037326629 -1.9532170260 -1.3294303046
H -0.2301462221 3.9244830887 1.9029214787
H -0.8854018325 4.4362614699 0.2818764087
H -1.7917740158 3.2476756912 1.2932381985
H -0.4163429929 3.0215129818 -2.3981774032
H -1.1417554427 1.5757226320 -1.8733970014
H -2.0553722457 2.9505192785 -1.4535373421
39
step=5 E=-2646.704877314655 Eh
Co 0.0200426512 -0.0319744327 0.0933576096
P 2.2507263013 -0.0305241297 -0.0340611551
P -0.0014873557 2.2443279520 -0.0568430694
O -1.8672074625 0.0437689125 0.1513732204
O 0.0771851933 -1.9078484942 0.0081779549
C -2.6905651890 -0.9390198923 0.1936655533
C -2.3091026418 -2.3088146860 0.1421534674
C -0.9305950006 -2.7034783510 0.0617658115
C -4.1714749536 -0.5812138824 0.2206506482
C -0.5959795144 -4.1909015009 -0.0170628359
H -2.9100243250 -2.9120234951 0.8249175056
H -4.6804550640 -1.0839011992 1.0724975286
H -4.3203541446 0.5116858109 0.3005779666
H -4.6708721755 -0.9571355005 -0.6956783584
H -1.1288441439 -4.6656333089 -0.8668247030
H 0.4926812807 -4.3461349946 -0.1281505089
H -0.9431050840 -4.7201853347 0.8967420487
C 2.6134861384 1.7390390552 0.5484244429
C 1.7950278000 2.7082034644 -0.3971163927
H 3.6432466450 2.0761748898 0.7570585164
H 1.9698333908 1.5499337694 1.4320718815
H 1.9528591294 3.8049557240 -0.3397101152
H 1.8803809704 2.4094531888 -1.4597413553
C 3.2366481001 -0.9939845186 1.2843951471
C 2.7247493666 -0.7307225980 -1.7157965949
C -0.7784155294 3.4793761721 1.0933693074
C -0.9122332938 2.5418586634 -1.6591413223
H 3.4124126681 -0.3782791090 2.1822770005
H 4.1966317085 -1.2536089506 0.7974470010
H 2.7334406543 -1.9337381931 1.5954020860
H 3.0678617515 0.1267708261 -2.3273186616
H 1.7685971062 -1.0391645470 -2.2060367418
H 3.3254516003 -1.6463115810 -1.5847966202
H -0.1908369841 3.7167461485 1.9973303311
H -0.9279115162 4.3874562963 0.4765399897
H -1.7583577834 3.0589915347 1.3978865651
H -0.2002389025 3.0524841105 -2.3373598790
H -1.0969860071 1.5806306188 -2.2032729003
H -1.9255368299 2.9505772497 -1.5025075390
39
step=6 E=-2646.556939320601 Eh
Co 0.0044701734 -0.0168663015 0.1539829808
P 2.2487004583 0.0264035005 0.0957048357
P 0.0111016815 2.2530793101 -0.1149491020
O -1.8914908579 0.0497288240 0.1874124945
O 0.0982846977 -1.9048216330 0.0661123896
C -2.7079019253 -0.9454353620 0.2198879400
C -2.2303903353 -2.2830973491 0.1790442905
C -0.8809301478 -2.7429818177 0.1248010177
C -4.2059439631 -0.6397667408 0.2324539347
C -0.5561049286 -4.2354516415 0.0457060209
H -2.9893436397 -3.2286143974 0.4286010591
H -4.7156122312 -1.1631701227 1.0705961629
H -4.3801681725 0.4484268742 0.3210523930
H -4.6708148570 -1.0188031605 -0.7017492539
H -1.0733862402 -4.7034588311 -0.8180433400
H 0.5353867017 -4.3862879386 -0.0429869619
H -0.9217449659 -4.7595629172 0.9551155249
C 2.7489424450 1.8664965550 0.3924157575
C 1.8046508990 2.7427777127 -0.4421945562
H 3.8615597430 2.0525637975 0.4471155105
H 2.2992497742 1.9622870683 1.4826629689
H 2.0556721417 3.8240047336 -0.3397122417
H 2.0058227903 2.4445819844 -1.4995601772
C 2.9364614644 -1.0933295771 1.4370824751
C 2.7270130406 -0.3856577513 -1.6755840361
C -0.6563766510 3.3689688114 1.2045940624
C -0.8176346659 2.5806529746 -1.7528765659
H 3.0175515165 -0.5295492435 2.3921448278
H 3.9723839721 -1.4270413670 1.1287774245
H 2.2574986797 -1.9852020024 1.5974360341
H 3.2588921814 -0.1345417987 -3.0321661152
H 1.7895133584 -0.6951732514 -2.1798348848
H 3.3009619494 -1.2860360973 -1.3192699757
H 0.0257930434 3.4384757893 2.0941137847
H -0.8362416409 4.4002002975 0.7731744751
H -1.6210309594 2.9350458736 1.5382508920
H -0.8417275330 3.1965931802 -3.1254953807
H -1.0368427556 1.6331181959 -2.2934943126
H -1.7768579855 2.9669929240 -1.1972125706
39
step=7 E=-2646.733643917099 Eh
Co -0.0152667389 -0.0471619241 0.1131913612
P 2.2154424254 -0.0061274422 0.0381889930
P 0.0137021053 2.1997444692 -0.1489325225
O -1.9087072189 0.0317959376 0.1568169337
O 0.0537177601 -1.9355074185 0.0714812733
C -2.7074649225 -0.9782939720 0.2098392212
C -2.3162874536 -2.3390221833 0.1874591146
C -0.9571537308 -2.7351232851 0.1431491314
C -4.1811268120 -0.6426889180 0.2143794742
C -0.6252322381 -4.2095897582 0.0889818238
H -3.0848689743 -3.1235919202 0.4122156975
H -4.6936252556 -1.1408276855 1.0633655557
H -4.3312891439 0.4495567912 0.2839077545
H -4.6563554483 -1.0256485727 -0.7113452787
H -1.1400632068 -4.6876477095 -0.7680252498
H 0.4660996782 -4.3564509891 -0.0004080492
H -0.9878117672 -4.7210399589 1.0053370089
C 2.6470025756 1.7797056570 0.4611179640
C 1.8010408587 2.6709478418 -0.4742297382
H 3.7172548832 2.0493698287 0.5501060163
H 2.1666333861 1.7797840833 1.4731540501
H 2.0142186018 3.7551551385 -0.3894604784
H 1.9427735806 2.3805023084 -1.5382277749
C 3.1371211746 -0.9994157019 1.3004160847
C 2.7995829580 -0.5928163417 -1.6268972960
C -0.7009495051 3.3981799100 1.0479477731
C -0.9021502741 2.5468210026 -1.7225854141
H 3.2453648564 -0.3999120047 2.2240075001
H 4.1428548977 -1.2571062135 0.9065117132
H 2.5770216269 -1.9302440795 1.5184068141
H 3.1942314326 0.2153413339 -2.3960609242
H 1.7641752743 -0.8133672766 -1.9560666180
H 3.4331301329 -1.4939913473 -1.7526694133
H -0.0457988313 3.5349647166 1.9296930522
H -0.8540709619 4.3704295514 0.5353077893
H -1.6789989153 2.9969147894 1.3798540705
H -0.3891450729 3.3497524276 -2.4339257916
H -1.1796569332 1.5438813475 -2.1118877109
H -1.8101243605 3.0019126293 -1.2625967035
39
step=8 E=-2646.643444399170 Eh
Co -0.0500437107 -0.0423494780 0.1041723657
P 2.1670913085 -0.0129614328 -0.0241025318
P -0.0187867512 2.1851511764 -0.1277279603
O -1.9405721138 0.0562240443 0.2047930420
O 0.0244926625 -1.9295361445 0.0451994103
C -2.7392637269 -0.9574531689 0.2694641521
C -2.3357699214 -2.3069607235 0.2281091885
C -0.9942063047 -2.7203275754 0.1370527712
C -4.2062501388 -0.6285162337 0.3234292072
C -0.6777121664 -4.1896732990 0.0687426488
H -3.0885788428 -3.0299037132 0.4114031648
H -4.6880618608 -1.1351129145 1.1834488593
H -4.3574238092 0.4620149184 0.4078414992
H -4.7122695993 -0.9995971938 -0.5906000707
H -1.2188947505 -4.6586162994 -0.7762294403
H 0.4084304069 -4.3468422365 -0.0543311220
H -1.0169176645 -4.7024478232 0.9921803758
C 2.6008168073 1.7352166172 0.4315532261
C 1.7571256572 2.6500168670 -0.4781913529
H 3.6637667195 2.0110471991 0.4805049789
H 2.1861388431 1.7263082433 1.4422311854
H 1.9666829760 3.7304999536 -0.3676727590
H 1.8650914611 2.4015326926 -1.5544948227
C 3.1659314245 -1.0023854426 1.1546867688
C 2.7531083229 -0.5896423204 -1.6801289102
C -0.6913494757 3.3608449241 1.1062420615
C -1.0202140167 2.5976010314 -1.6396138728
H 3.2977780342 -0.4294304254 2.0901887205
H 4.1511863180 -1.2327158001 0.7226013184
H 2.6376529622 -1.9421685930 1.3617326890
H 3.3280547256 0.2118557251 -1.9781546278
H 2.8162532791 -1.0562526090 -2.6828300292
H 3.2190377810 -1.2102302632 -0.9002565182
H -0.0072069347 3.4693119551 1.9621087619
H -0.8479161736 4.3402683470 0.6303782477
H -1.6623676345 2.9661511972 1.4642877503
H -0.3932353707 3.1600964024 -2.2149759812
H -1.1874940583 1.6548020104 -2.1911136512
H -1.9817763319 3.0151429876 -1.9338829650
39
step=9 E=-2646.721929056153 Eh
Co -0.0437588313 -0.0346811595 0.1224088096
P 2.1727782153 0.0037482104 0.0208826490
P -0.0141623159 2.1897465005 -0.1186727818
O -1.9360457802 0.0612952595 0.1999256190
O 0.0380471579 -1.9224613836 0.0694859172
C -2.7353917378 -0.9531196080 0.2575509166
C -2.3191083132 -2.2992696195 0.2251200994
C -0.9782885641 -2.7187968297 0.1509486202
C -4.2060265610 -0.6297546275 0.2939620541
C -0.6598452724 -4.1899200119 0.0914264366
H -3.0789858819 -3.0359156873 0.3988942243
H -4.6966872758 -1.1356412753 1.1496054867
H -4.3624996725 0.4604663410 0.3736443368
H -4.7004510668 -1.0047137873 -0.6251517797
H -1.1900767648 -4.6630675280 -0.7585854532
H 0.4278023944 -4.3469795593 -0.0181390380
H -1.0095681255 -4.7002242099 1.0123956810
C 2.5989284610 1.7557183213 0.4683834880
C 1.7630440850 2.6617574267 -0.4517095507
H 3.6647204955 2.0314789984 0.5275599229
H 2.1726243723 1.7563536436 1.4813679333
H 1.9706349618 3.7435789385 -0.3414607698
H 1.8869986238 2.4095594009 -1.5261649180
C 3.1494452768 -0.9861851969 1.2199822440
C 2.7930019664 -0.5617153046 -1.6354033862
C -0.7026348988 3.3616170830 1.1126190912
C -0.9915593050 2.5960134940 -1.6464987983
H 3.2629615018 -0.4141192008 2.1592783487
H 4.1464313050 -1.2180561414 0.8095129724
H 2.6149772138 -1.9282344180 1.4176067326
H 3.3618128211 0.1424481558 -2.1944546897
H 2.3295328384 -1.0731228642 -2.5035635783
H 3.4960002173 -1.3898255781 -1.4578482058
H -0.0274586646 3.4709916213 1.9784371963
H -0.8580505520 4.3445394124 0.6379517887
H -1.6758835200 2.9628398648 1.4598809855
H -0.3614542651 3.1781852651 -2.2567547771
H -1.1523131757 1.6605860177 -2.2136629039
H -1.9765464294 3.0249307551 -1.8614766555
39
step=10 E=-2646.751618769778 Eh
Co -0.0348882201 -0.0436426565 0.0966725011
P 2.1816592470 0.0012442672 0.0089827960
P -0.0046930926 2.1790563494 -0.1662063031
O -1.9264572432 0.0506287515 0.1624421420
O 0.0426362597 -1.9324225367 0.0640913280
C -2.7246482564 -0.9636167322 0.2233182883
C -2.3255722373 -2.3190025091 0.2076020924
C -0.9755753496 -2.7272538846 0.1449892284
C -4.1968268865 -0.6284690471 0.2513352274
C -0.6500097658 -4.2020953520 0.1043702960
H -3.1064178568 -3.0880555787 0.3844494368
H -4.6967059778 -1.1227699062 1.1095149192
H -4.3450115155 0.4640017547 0.3206537812
H -4.6907624852 -1.0073785930 -0.6668774187
H -1.1713375583 -4.6894817816 -0.7440700298
H 0.4393825920 -4.3553798313 0.0044775655
H -1.0039876116 -4.7043605406 1.0286757123
C 2.6086973248 1.7680398399 0.4238237020
C 1.7696970790 2.6628134775 -0.5042638346
H 3.6817802443 2.0406919412 0.4798546584
H 2.1742868648 1.7911603622 1.4513977613
H 1.9733014722 3.7480962416 -0.4018435561
H 1.9065748141 2.3991595807 -1.5758004591
C 3.1368589773 -0.9954272736 1.2298802840
C 2.8245812978 -0.5419755437 -1.6237058940
C -0.6978496617 3.3477199813 1.0731004968
C -0.9423516365 2.5694097305 -1.7049883900
H 3.2363683904 -0.4253218523 2.1729482940
H 4.1452143205 -1.2292433946 0.8325107377
H 2.5953235398 -1.9428424627 1.4237824061
H 3.4292063763 0.1911713501 -2.2727846383
H 1.9171168775 -0.9558514022 -2.1155485947
H 3.5466110486 -1.3714182808 -1.4457342893
H -0.0280893670 3.4602732570 1.9486861387
H -0.8546368227 4.3357385678 0.5957926447
H -1.6709783821 2.9427421012 1.4135799430
H -0.3688250332 3.2818281219 -2.4053909693
H -1.1525061968 1.6137846830 -2.2373596722
H -1.8646549340 3.0025292425 -1.2592033836
39
step=11 E=-2646.757892860835 Eh
Co -0.0375345487 -0.0432804420 0.0998434689
P 2.1738573890 0.0016645601 0.0280186107
P -0.0151433205 2.1641995876 -0.1772404029
O -1.9292498154 0.0589504168 0.1672907124
O 0.0519267034 -1.9330859025 0.0832073825
C -2.7288472519 -0.9564405911 0.2301669518
C -2.3064907631 -2.3016321168 0.2282507872
C -0.9668585368 -2.7295406784 0.1602442294
C -4.2018442360 -0.6313650152 0.2816662804
C -0.6477336862 -4.2048206991 0.1493445370
H -3.0860705040 -3.0769054819 0.3084967114
H -4.6864619088 -1.1270630693 1.1471119373
H -4.3543730761 0.4602699357 0.3527398179
H -4.7087799109 -1.0092306748 -0.6301320809
H -1.1655214005 -4.7077661952 -0.6922716999
H 0.4412794455 -4.3638423314 0.0554406471
H -1.0055839332 -4.6880575443 1.0818496749
C 2.6301842305 1.7656898735 0.3999776839
C 1.7595603635 2.6588660662 -0.4936041935
H 3.7132099260 2.0037511283 0.3836718554
H 2.2862730069 1.8565891446 1.4568074323
H 1.9565728900 3.7418246066 -0.3575603737
H 1.9234043876 2.4257274570 -1.5684531974
C 3.0915031629 -1.0249413617 1.2454124164
C 2.8369835086 -0.4901343631 -1.6141841684
C -0.6750152738 3.2826985118 1.1222310173
C -0.9672580688 2.6033488974 -1.7035379019
H 3.1552024376 -0.4896084736 2.2124348834
H 4.1150164523 -1.2475594921 0.8855530292
H 2.5409850481 -1.9747257471 1.3928568611
H 3.3905322703 0.2961700418 -2.2041805264
H 1.9474449568 -0.8623448023 -2.1640744207
H 3.5577388206 -1.3341873675 -1.5199953784
H 0.0123495463 3.3372118421 1.9892946897
H -0.8258385819 4.2994468401 0.7077560928
H -1.6467897725 2.8754828015 1.4645098369
H -0.3815914382 3.2245725348 -2.4461470041
H -1.0654902647 1.7045468313 -2.3444613738
H -1.9947219933 3.0188616553 -1.6638783590
39
step=12 E=-2646.755214197755 Eh
Co -0.0468265344 -0.0456715352 0.0751880659
P 2.1583651836 0.0017359373 0.0360861575
P -0.0285147697 2.1415745501 -0.2378102487
O -1.9392386724 0.0611737675 0.1324569268
O 0.0529966596 -1.9365188207 0.1089056652
C -2.7390098704 -0.9553378481 0.2078520997
C -2.3005260082 -2.2919150839 0.2426435621
C -0.9678622185 -2.7325780339 0.1808766680
C -4.2119394770 -0.6371245004 0.2715661480
C -0.6528894824 -4.2066043805 0.2199638164
H -3.0679772334 -3.0619215199 0.2508314039
H -4.6845121516 -1.1214343249 1.1492798347
H -4.3676388075 0.4548592600 0.3279664011
H -4.7294240368 -1.0264035260 -0.6297865245
H -1.1616348588 -4.7377213927 -0.6099955739
H 0.4364633134 -4.3707112245 0.1403781287
H -1.0195091916 -4.6580892584 1.1644002417
C 2.6438645480 1.7660498098 0.3464325851
C 1.7458076936 2.6484955277 -0.5262011770
H 3.7296128994 1.9632623020 0.2399170434
H 2.4036182491 1.9428699639 1.4167017129
H 1.9234662933 3.7303551976 -0.3587355077
H 1.9469819233 2.4464848980 -1.6007660311
C 3.0228676532 -1.0308580418 1.2832000945
C 2.8543082996 -0.4701760442 -1.6238342202
C -0.6601441660 3.2107571492 1.1123987062
C -0.9751640863 2.6321817943 -1.7498306420
H 3.0267402285 -0.5217431050 2.2671603687
H 4.0664954395 -1.2381299213 0.9822160028
H 2.4713463624 -1.9843730709 1.3846045906
H 3.4032175706 0.3229152275 -2.1083146896
H 2.3526037261 -0.9045683242 -2.5074538426
H 3.5710617051 -1.3026170162 -1.4984481641
H 0.0361746321 3.2014302054 1.9725391383
H -0.7921950531 4.2519498511 0.7594705903
H -1.6366082021 2.8079716936 1.4469854541
H -0.5058765833 3.4303143494 -2.3115752948
H -1.1894829132 1.7270624530 -2.3473102238
H -1.9681734626 3.0478951726 -1.5103670922
39
step=13 E=-2646.768655550442 Eh
Co -0.0426480621 -0.0501166755 0.0702679286
P 2.1623467433 0.0033997530 0.0306533534
P -0.0161392372 2.1394573129 -0.2384754212
O -1.9357145885 0.0511555290 0.1258218979
O 0.0496698374 -1.9418842666 0.1139324961
C -2.7316049338 -0.9675285704 0.2040616314
C -2.3166783410 -2.3135052935 0.2440007190
C -0.9740809555 -2.7336918018 0.1857884031
C -4.2033361023 -0.6397232997 0.2507012562
C -0.6527667937 -4.2073727851 0.2126501880
H -3.0918376226 -3.0863094893 0.2879842103
H -4.6865569269 -1.1175630701 1.1264561659
H -4.3531017068 0.4536033535 0.3001429991
H -4.7146210859 -1.0315914958 -0.6531172479
H -1.1613032348 -4.7350412599 -0.6198516546
H 0.4372587572 -4.3663972710 0.1303942994
H -1.0169094814 -4.6665070631 1.1545325430
C 2.6476975095 1.7682787631 0.3441334602
C 1.7549388712 2.6525272600 -0.5354380800
H 3.7332069652 1.9703192729 0.2345313679
H 2.3982778905 1.9293602763 1.4160730878
H 1.9254602236 3.7359672992 -0.3685721159
H 1.9469700933 2.4543748949 -1.6125046061
C 3.0418861421 -1.0189291984 1.2749279422
C 2.8701305469 -0.4742615416 -1.6103323117
C -0.6566435871 3.2103836893 1.1078822282
C -0.9634050516 2.6348132309 -1.7418349998
H 3.0403185397 -0.5055113261 2.2563464015
H 4.0876585980 -1.2140052130 0.9676368091
H 2.5010677532 -1.9799694288 1.3763061898
H 3.3946212742 0.3278063215 -2.1417326031
H 2.0818089918 -0.8666392845 -2.2827004025
H 3.5926529941 -1.3094851816 -1.5132946436
H 0.0348936013 3.2038149276 1.9727655131
H -0.7868860530 4.2510933994 0.7500967703
H -1.6350455671 2.8068986539 1.4355742922
H -0.4519814550 3.4143705808 -2.3150339669
H -1.1508173871 1.7459286633 -2.3744370739
H -1.9560125891 3.0272488129 -1.4523521825
39
step=14 E=-2646.770372883327 Eh
Co -0.0421632806 -0.0533561761 0.0574988381
P 2.1598479582 0.0053029587 0.0278560834
P -0.0142318781 2.1310051269 -0.2569649882
O -1.9363939746 0.0493877782 0.1098426020
O 0.0537983825 -1.9461140550 0.1326088382
C -2.7350553953 -0.9659764067 0.1975317449
C -2.3062290947 -2.3070770999 0.2487549950
C -0.9668291077 -2.7410743389 0.2033538456
C -4.2091457053 -0.6438707444 0.2369768499
C -0.6515343231 -4.2167075200 0.2420997863
H -3.0839090000 -3.0848844900 0.3023754498
H -4.6928801591 -1.1177962693 1.1146146031
H -4.3641500721 0.4491366165 0.2777301623
H -4.7161515541 -1.0445548738 -0.6654488775
H -1.1595176298 -4.7491099900 -0.5877843908
H 0.4380629134 -4.3814920533 0.1650750172
H -1.0213663314 -4.6665487902 1.1863442704
C 2.6591338774 1.7729674562 0.3182791122
C 1.7537267156 2.6554306095 -0.5497706472
H 3.7427914335 1.9562555624 0.1612608766
H 2.4539173376 1.9594386699 1.3971496521
H 1.9107171704 3.7383355362 -0.3645124781
H 1.9518868626 2.4792652304 -1.6297155605
C 3.0201607439 -1.0184575546 1.2821558019
C 2.8791780810 -0.4734193381 -1.6071448621
C -0.6449635787 3.1716058307 1.1177744022
C -0.9669135663 2.6607819507 -1.7421127932
H 2.9817195845 -0.5162381671 2.2686897041
H 4.0777077945 -1.1969707649 1.0036621113
H 2.4860061032 -1.9865167109 1.3547615918
H 3.3914780422 0.3608977464 -2.1419349579
H 2.0546843312 -0.8455383415 -2.2461091036
H 3.5993047067 -1.3104824176 -1.5064976867
H 0.0485246928 3.1311388098 1.9807339015
H -0.7653213032 4.2250222975 0.7932580183
H -1.6265943497 2.7677929103 1.4350791378
H -0.4523052998 3.4765308716 -2.3044266805
H -1.1217827989 1.7995860230 -2.4190099281
H -1.9663291038 3.0210231320 -1.4245125943
39
step=15 E=-2646.771815095623 Eh
Co -0.0444692703 -0.0569035536 0.0336457474
P 2.1523729808 0.0094227267 0.0198189069
P -0.0143343588 2.1187200186 -0.2848899397
O -1.9394289526 0.0406047194 0.0793738093
O 0.0496594919 -1.9484404779 0.1621140754
C -2.7312762999 -0.9791916987 0.1829993080
C -2.3239908489 -2.3259643359 0.2599349261
C -0.9759796253 -2.7369639615 0.2306554769
C -4.2032449316 -0.6500546024 0.2124543087
C -0.6533812789 -4.2093817394 0.2935131888
H -3.1020211135 -3.1048464162 0.3207392387
H -4.6921251269 -1.1100731765 1.0945660349
H -4.3528418004 0.4442159444 0.2373804692
H -4.7085248011 -1.0603462901 -0.6865909374
H -1.1549012806 -4.7572439687 -0.5301243812
H 0.4374490657 -4.3694639454 0.2240702023
H -1.0254753696 -4.6457934688 1.2432018819
C 2.6739550050 1.7780379439 0.2753285340
C 1.7484094624 2.6616730815 -0.5701462767
H 3.7485508336 1.9316516359 0.0410055282
H 2.5435256549 1.9986744265 1.3583386057
H 1.8819384758 3.7419826008 -0.3519080358
H 1.9539888477 2.5246847410 -1.6541997243
C 2.9902882926 -1.0103839795 1.2890226544
C 2.8960314479 -0.4778912608 -1.6044491764
C -0.6275883452 3.1073153203 1.1359977489
C -0.9777860323 2.7081116410 -1.7374372198
H 2.8896176736 -0.5302871695 2.2821365565
H 4.0645335103 -1.1534107870 1.0569376668
H 2.4781833167 -1.9927718639 1.3156844219
H 3.3996634335 0.3676489063 -2.1317842853
H 2.0843936226 -0.8540058354 -2.2581272472
H 3.6157432561 -1.3087085938 -1.4676692556
H 0.0656619991 3.0099317773 1.9947445314
H -0.7279945467 4.1783531633 0.8666356621
H -1.6160710912 2.7060680912 1.4345402068
H -0.4743935365 3.5742633466 -2.2325554185
H -1.0901409048 1.8998785880 -2.4835533754
H -1.9852410655 3.0129939788 -1.3882989306
39
step=16 E=-2646.772817306227 Eh
Co -0.0450930458 -0.0596584436 -0.0103131999
P 2.1441575858 0.0111956066 -0.0009029741
P -0.0157469199 2.1054250645 -0.3228590833
O -1.9425268756 0.0418451435 0.0209187984
O 0.0560516361 -1.9469416142 0.2055609265
C -2.7391303822 -0.9706732892 0.1507275227
C -2.3051421916 -2.3063842678 0.2631541635
C -0.9637466023 -2.7411846478 0.2717169072
C -4.2149688524 -0.6536602427 0.1636111879
C -0.6525516344 -4.2144432540 0.3804956521
H -3.0818260304 -3.0780588566 0.3492672239
H -4.7070918578 -1.1003840192 1.0507982957
H -4.3757174657 0.4393350383 0.1643492525
H -4.7097342672 -1.0867763176 -0.7305642766
H -1.1509068533 -4.7822624592 -0.4313246874
H 0.4373910953 -4.3863743869 0.3271455240
H -1.0375643172 -4.6206672357 1.3385821858
C 2.6953510709 1.7806433737 0.2084794824
C 1.7404162517 2.6750828815 -0.5962197303
H 3.7448572811 1.8934696577 -0.1360553979
H 2.6728035132 2.0353989056 1.2878363151
H 1.8377219578 3.7472739018 -0.3236813983
H 1.9495165562 2.6024583079 -1.6851132177
C 2.9580662105 -0.9922147743 1.2946211105
C 2.9240740616 -0.5136599533 -1.6023383957
C -0.6063277387 3.0104982818 1.1638662825
C -0.9980377262 2.7895767132 -1.7173727576
H 2.7578769923 -0.5508839248 2.2903684154
H 4.0519920934 -1.0669196056 1.1347764592
H 2.5003196560 -2.0005922078 1.2567066242
H 3.4042296304 0.3395797589 -2.1065933999
H 2.1229958344 -0.9016767108 -2.2633395264
H 3.6557715910 -1.3269264554 -1.4390795049
H 0.0781539626 2.8252927203 2.0148424191
H -0.6700373380 4.1016033186 0.9777875322
H -1.6084984865 2.6193925169 1.4282520656
H -0.5283393076 3.7257229217 -2.0581576844
H -1.0433091642 2.0720404711 -2.5581680368
H -2.0174961410 2.9870072515 -1.3358601025
39
step=17 E=-2646.773416480215 Eh
Co -0.0453313166 -0.0606540526 -0.0261410767
P 2.1445723651 0.0113918213 -0.0154572094
P -0.0155982242 2.1072722446 -0.3225232875
O -1.9432103150 0.0380189268 0.0004832369
O 0.0528068670 -1.9451719053 0.2151929756
C -2.7384423672 -0.9744642283 0.1389242350
C -2.3124133421 -2.3119096416 0.2603450236
C -0.9684108895 -2.7372055703 0.2842540656
C -4.2135101784 -0.6543503600 0.1462362805
C -0.6542242565 -4.2080922316 0.4126987654
H -3.0896391487 -3.0849873627 0.3545527973
H -4.7102863730 -1.0965902977 1.0330607894
H -4.3718021812 0.4389552025 0.1420616380
H -4.7047993122 -1.0902520352 -0.7484591673
H -1.1508717766 -4.7861680763 -0.3927325499
H 0.4361856401 -4.3781579248 0.3634189740
H -1.0393728032 -4.6032376782 1.3753933659
C 2.7043460690 1.7828189324 0.1823835097
C 1.7373435172 2.6873473225 -0.5968344218
H 3.7466457731 1.8879494410 -0.1850015074
H 2.7120426728 2.0341623464 1.2634895384
H 1.8302967825 3.7542528966 -0.3032235427
H 1.9382736498 2.6382822099 -1.6884412489
C 2.9519351192 -0.9832970415 1.2915117331
C 2.9190803232 -0.5435193647 -1.6117163744
C -0.6000124185 2.9810761873 1.1859188370
C -1.0122513628 2.8211526035 -1.6923898184
H 2.7164494187 -0.5560447555 2.2857412189
H 4.0510907387 -1.0285506092 1.1576467636
H 2.5198720590 -2.0021173284 1.2343759363
H 3.4330975846 0.2944105658 -2.1303924524
H 2.1829724533 -0.9755494035 -2.3184255558
H 3.6584070857 -1.3343003222 -1.3791572021
H 0.0793492664 2.7653857013 2.0338513156
H -0.6505991836 4.0776407097 1.0284278599
H -1.6076220229 2.5947559018 1.4366135268
H -0.5801497413 3.8005956516 -1.9993984301
H -1.0068278485 2.1310446427 -2.5580168871
H -2.0602699077 2.9749251006 -1.3717286891
39
step=18 E=-2646.774098011090 Eh
Co -0.0418341810 -0.0624338850 -0.0309945973
P 2.1517035742 0.0054426612 -0.0246326403
P -0.0113497100 2.1123070116 -0.3095322485
O -1.9390351869 0.0346562805 -0.0110836230
O 0.0500567064 -1.9458410679 0.2084127018
C -2.7331979405 -0.9787838146 0.1266055590
C -2.3214916369 -2.3205743556 0.2512986947
C -0.9742707150 -2.7338408077 0.2814505625
C -4.2063709541 -0.6518359092 0.1284388112
C -0.6557072426 -4.2023668526 0.4210213699
H -3.0993359116 -3.0922064469 0.3475970462
H -4.7094837170 -1.0922672385 1.0125865839
H -4.3591619780 0.4422312526 0.1246921391
H -4.6950976923 -1.0847911987 -0.7690711718
H -1.1518557730 -4.7872708591 -0.3796989082
H 0.4352420818 -4.3688901351 0.3719283874
H -1.0380005036 -4.5917744018 1.3871845802
C 2.7060498964 1.7784451574 0.1794224069
C 1.7405139948 2.6930510188 -0.5901659110
H 3.7543639420 1.8966504153 -0.1654393178
H 2.6957006217 2.0080094032 1.2658921643
H 1.8417873651 3.7585925867 -0.2955617271
H 1.9300987702 2.6426987610 -1.6836249156
C 2.9689977438 -0.9738620602 1.2909233969
C 2.9127736781 -0.5787216905 -1.6156994035
C -0.6021095953 2.9900905533 1.1950914065
C -1.0147520555 2.8208635066 -1.6796499844
H 2.7315310894 -0.5442198506 2.2836532556
H 4.0680601905 -1.0043410253 1.1532039057
H 2.5528190698 -1.9997370680 1.2442396998
H 3.4048541811 0.2657819940 -2.1378486185
H 2.1422321283 -1.0112568548 -2.2808291295
H 3.6720268260 -1.3638565758 -1.4305979784
H 0.0697563508 2.7795773621 2.0503255810
H -0.6506931240 4.0856089524 1.0295416955
H -1.6122234538 2.6062292006 1.4394119590
H -0.6162713087 3.8130608567 -1.9800564460
H -0.9863156823 2.1401258202 -2.5521397914
H -2.0690648912 2.9360923632 -1.3651289929
39
step=19 E=-2646.774681199977 Eh
Co -0.0420521541 -0.0629476201 -0.0449941031
P 2.1534870657 0.0004462393 -0.0414924375
P -0.0078509975 2.1161319987 -0.3017252980
O -1.9392053018 0.0331832092 -0.0346845410
O 0.0494839747 -1.9434255098 0.2061917604
C -2.7348694032 -0.9787378151 0.1046675723
C -2.3196531969 -2.3179466862 0.2409116707
C -0.9735671808 -2.7324398685 0.2851553103
C -4.2084174882 -0.6535134949 0.0956070905
C -0.6542468877 -4.1983963309 0.4485934594
H -3.0966145878 -3.0868526114 0.3414330604
H -4.7177100635 -1.0932100344 0.9764670773
H -4.3626514725 0.4403448414 0.0890152881
H -4.6897870235 -1.0881481383 -0.8051193434
H -1.1512899583 -4.7966718981 -0.3415666139
H 0.4367285105 -4.3650781512 0.4009799055
H -1.0345485683 -4.5719237264 1.4217740136
C 2.7113024621 1.7708191437 0.1599982550
C 1.7423555153 2.6962704143 -0.5908175665
H 3.7597215452 1.8944366235 -0.1819884808
H 2.7032684124 1.9816853471 1.2500158562
H 1.8517975352 3.7580173724 -0.2868978306
H 1.9177178105 2.6538232623 -1.6869960854
C 2.9755234264 -0.9592724672 1.2858409489
C 2.9058019202 -0.6126062402 -1.6223504669
C -0.5933149393 2.9835509004 1.2112436042
C -1.0209886374 2.8321542712 -1.6587401288
H 2.7143150225 -0.5384014564 2.2762819078
H 4.0763393908 -0.9586358375 1.1610718784
H 2.5899093079 -1.9961831859 1.2336159355
H 3.3858047371 0.2200277303 -2.1696954924
H 2.1236423713 -1.0657736074 -2.2585752955
H 3.6768316868 -1.3792903945 -1.4117105357
H 0.0706450613 2.7588776850 2.0686898972
H -0.6291199898 4.0804333984 1.0540790810
H -1.6091468816 2.6090444708 1.4460384033
H -0.6779389323 3.8545900355 -1.9069966274
H -0.9544848817 2.1910097478 -2.5582726601
H -2.0764032383 2.8676238329 -1.3306557193
39
step=20 E=-2646.775339517848 Eh
Co -0.0449773172 -0.0634194805 -0.0711281420
P 2.1522235594 -0.0090282893 -0.0723382699
P -0.0031148610 2.1196805013 -0.2885706914
O -1.9418739354 0.0306106146 -0.0815843881
O 0.0475363364 -1.9374413279 0.2128300741
C -2.7385374005 -0.9800123504 0.0616115458
C -2.3171834433 -2.3138703321 0.2285267131
C -0.9727254664 -2.7289835766 0.3036824370
C -4.2130295960 -0.6604625062 0.0244684285
C -0.6525963505 -4.1882839139 0.5191068045
H -3.0940361053 -3.0828251643 0.3314829864
H -4.7373222717 -1.0994001710 0.8966820280
H -4.3715997800 0.4327569997 0.0111002191
H -4.6758224514 -1.0989825608 -0.8842376474
H -1.1533027963 -4.8164093175 -0.2450918799
H 0.4382374861 -4.3562578230 0.4727384283
H -1.0271974714 -4.5248001967 1.5079399683
C 2.7238329829 1.7561791818 0.1130804471
C 1.7432818499 2.6985699744 -0.5969647396
H 3.7660642936 1.8794138944 -0.2484574252
H 2.7427545483 1.9494225662 1.2069105860
H 1.8673973127 3.7524487185 -0.2726593367
H 1.8938040763 2.6761831236 -1.6976001112
C 2.9741392973 -0.9368860768 1.2764941409
C 2.8979873969 -0.6713554344 -1.6322906258
C -0.5663279537 2.9557271114 1.2500459744
C -1.0373448201 2.8596442313 -1.6086951879
H 2.6466265886 -0.5488170007 2.2604202174
H 4.0770519101 -0.8625611106 1.1960491163
H 2.6608211582 -1.9960486782 1.1974492934
H 3.3388168238 0.1582424696 -2.2158830407
H 2.1184276561 -1.1774115830 -2.2302852862
H 3.7053991256 -1.3898583700 -1.3901451008
H 0.0851625714 2.6851035134 2.1035871456
H -0.5681461892 4.0573760928 1.1254251400
H -1.5947568609 2.6067552255 1.4688699839
H -0.8208670536 3.9370695014 -1.7314803157
H -0.8668498057 2.3342104920 -2.5679001008
H -2.0960655093 2.7200483643 -1.3176260302
39
step=21 E=-2646.775737673184 Eh
Co -0.0460711610 -0.0626890181 -0.0732384569
P 2.1517028221 -0.0161124520 -0.0818659453
P -0.0014551078 2.1214204909 -0.2738135225
O -1.9426899954 0.0310599727 -0.0954490201
O 0.0471415887 -1.9353207912 0.2147029003
C -2.7401449705 -0.9799581534 0.0426645066
C -2.3166471241 -2.3110062980 0.2261544129
C -0.9729919018 -2.7265657146 0.3124213057
C -4.2148483798 -0.6643537007 -0.0157636720
C -0.6532870880 -4.1822673866 0.5503881644
H -3.0935137690 -3.0812412573 0.3247050286
H -4.7511836908 -1.1092138395 0.8459473787
H -4.3765188261 0.4284927256 -0.0262833662
H -4.6627786551 -1.0989270999 -0.9338857354
H -1.1623598376 -4.8245678639 -0.1962365936
H 0.4368605564 -4.3526931261 0.4965474615
H -1.0181247915 -4.4988185472 1.5494795301
C 2.7289056611 1.7470974484 0.0957231797
C 1.7431052937 2.6932341494 -0.6016144501
H 3.7687632909 1.8715150380 -0.2725702486
H 2.7553029655 1.9382823840 1.1902880419
H 1.8808036207 3.7467345731 -0.2813124805
H 1.8784573350 2.6679867188 -1.7042809745
C 2.9725656419 -0.9349790513 1.2742525874
C 2.8962494848 -0.6898682054 -1.6362750974
C -0.5465219552 2.9546655729 1.2720820392
C -1.0496325211 2.8562369449 -1.5808961468
H 2.6116110547 -0.5689204548 2.2548785177
H 4.0740440235 -0.8225964094 1.2187612151
H 2.6989114310 -2.0036891412 1.1792143435
H 3.2930859790 0.1420987667 -2.2490846255
H 2.1288207090 -1.2412354210 -2.2102536586
H 3.7352980671 -1.3668695911 -1.3824826740
H 0.1026525870 2.6655734188 2.1213335752
H -0.5296131433 4.0571982783 1.1563307510
H -1.5804084703 2.6232360941 1.4927078917
H -0.9249032538 3.9546774170 -1.6339535572
H -0.8092707993 2.4056254876 -2.5634355385
H -2.1014623239 2.6087698524 -1.3369017158
39
step=22 E=-2646.776326968205 Eh
Co -0.0472647385 -0.0622037397 -0.0538045085
P 2.1502669041 -0.0243580158 -0.0765191337
P 0.0005085571 2.1217050679 -0.2478130636
O -1.9435848024 0.0326041814 -0.0893107257
O 0.0449173989 -1.9380579049 0.2156112808
C -2.7419157032 -0.9802373889 0.0331096804
C -2.3191614826 -2.3094067764 0.2315011784
C -0.9763431212 -2.7276507137 0.3195967503
C -4.2157560418 -0.6686093006 -0.0573435467
C -0.6585757678 -4.1818451703 0.5672884374
H -3.0968837967 -3.0815288946 0.3189723333
H -4.7719036889 -1.1318601010 0.7816697372
H -4.3818458958 0.4237090292 -0.0513164639
H -4.6389737353 -1.0863832397 -0.9949255708
H -1.1890799015 -4.8332728232 -0.1559740639
H 0.4291707877 -4.3585370324 0.4893564764
H -0.9994251654 -4.4810884087 1.5802661408
C 2.7314253088 1.7379001621 0.0934362040
C 1.7427781892 2.6762825868 -0.6109708002
H 3.7705037057 1.8635098402 -0.2767965677
H 2.7543546375 1.9413071772 1.1864186951
H 1.9005272044 3.7361320772 -0.3214426459
H 1.8614487622 2.6224274761 -1.7147762959
C 2.9697154662 -0.9447629206 1.2798401671
C 2.8981980150 -0.6875251813 -1.6332742247
C -0.5157616584 2.9776355806 1.2938521710
C -1.0664355353 2.8237242137 -1.5538875977
H 2.5755619758 -0.6066860955 2.2577615851
H 4.0681562957 -0.7956113144 1.2520919331
H 2.7358968418 -2.0207224489 1.1630090954
H 3.1944441586 0.1531552830 -2.2919331946
H 2.1645382992 -1.3212612657 -2.1669459253
H 3.7972893738 -1.2872618013 -1.3911498309
H 0.1368213223 2.6803188636 2.1378321675
H -0.4772408450 4.0788840635 1.1704728566
H -1.5537899448 2.6708607904 1.5304930861
H -1.0746359915 3.9323848764 -1.5339539292
H -0.7318547961 2.4738659823 -2.5503661055
H -2.0915857194 2.4372932266 -1.3827733801
39
step=23 E=-2646.776795036396 Eh
Co -0.0472645856 -0.0626163515 -0.0229719108
P 2.1488628984 -0.0278914089 -0.0538052537
P 0.0017136745 2.1204171101 -0.2324939837
O -1.9438726648 0.0328207299 -0.0626633319
O 0.0434905192 -1.9443592095 0.2135457466
C -2.7425863729 -0.9817232282 0.0452470939
C -2.3226589600 -2.3120503422 0.2413128101
C -0.9793272233 -2.7319753479 0.3161274547
C -4.2152552960 -0.6703630150 -0.0617158828
C -0.6625393805 -4.1891038451 0.5455020869
H -3.1010728934 -3.0847800158 0.3213645800
H -4.7847022904 -1.1568060129 0.7548727177
H -4.3842283501 0.4211162758 -0.0296190222
H -4.6213019148 -1.0637342999 -1.0173417704
H -1.2167768296 -4.8347486549 -0.1647683329
H 0.4218129360 -4.3707700282 0.4370030007
H -0.9758535891 -4.4908423869 1.5668020203
C 2.7290083035 1.7356968506 0.1126820004
C 1.7440418143 2.6566092593 -0.6214516599
H 3.7702113587 1.8585295204 -0.2520811817
H 2.7383504060 1.9608683930 1.2014145677
H 1.9115483978 3.7256544131 -0.3733464542
H 1.8591618929 2.5623423435 -1.7229987906
C 2.9666850737 -0.9620759867 1.2940696563
C 2.9007946944 -0.6643648462 -1.6189389701
C -0.4942555008 3.0138137570 1.2933695481
C -1.0757163439 2.7842370244 -1.5522228930
H 2.5648729723 -0.6364073880 2.2731478565
H 4.0646610941 -0.8084577762 1.2755694120
H 2.7381259315 -2.0376753528 1.1634775236
H 3.0914498806 0.1737251628 -2.3192440162
H 2.2067225147 -1.3755208519 -2.1077518192
H 3.8535242455 -1.1850216138 -1.4001217307
H 0.1651328947 2.7271484555 2.1359619018
H -0.4459634000 4.1118130375 1.1466224206
H -1.5322472690 2.7226293131 1.5492400908
H -1.1602980065 3.8897783027 -1.5055985544
H -0.6847997672 2.4853705831 -2.5449528307
H -2.0787184219 2.3283145374 -1.4272620898
39
step=24 E=-2646.777316289752 Eh
Co -0.0472449977 -0.0653714145 0.0124394285
P 2.1469115934 -0.0292267292 -0.0176233745
P 0.0032486739 2.1167491566 -0.2281022831
O -1.9445263072 0.0294583300 -0.0269683090
O 0.0417377855 -1.9538862038 0.2092468871
C -2.7428550956 -0.9863418797 0.0712385525
C -2.3262169177 -2.3198584881 0.2514924800
C -0.9819135129 -2.7407901604 0.3036970001
C -4.2145850179 -0.6724059396 -0.0382275437
C -0.6654787082 -4.2034829416 0.4949443565
H -3.1052245534 -3.0920130973 0.3296892233
H -4.7929717755 -1.1907494467 0.7519183579
H -4.3854021926 0.4169144048 0.0340072971
H -4.6084031551 -1.0287879945 -1.0133625236
H -1.2497036618 -4.8341095395 -0.2042808612
H 0.4133585089 -4.3887437411 0.3450725059
H -0.9420305686 -4.5203218213 1.5225258431
C 2.7235378461 1.7378751046 0.1409894434
C 1.7471711019 2.6340110594 -0.6365499792
H 3.7683910816 1.8531222721 -0.2151257143
H 2.7159245051 1.9924946471 1.2224716377
H 1.9163346590 3.7127210193 -0.4353721165
H 1.8670870445 2.4924947253 -1.7324088788
C 2.9630984500 -0.9787068152 1.3194846051
C 2.9016578531 -0.6430582968 -1.5882656749
C -0.4758190408 3.0541765537 1.2764328664
C -1.0788978830 2.7478536769 -1.5654761580
H 2.5655525956 -0.6552672371 2.3010711984
H 4.0624369636 -0.8370921489 1.3001892379
H 2.7207366894 -2.0504208580 1.1809294869
H 2.9568945379 0.1701019523 -2.3394160917
H 2.2767728849 -1.4546204662 -2.0108911002
H 3.9157308702 -1.0499458719 -1.4053252190
H 0.1899313660 2.7856786987 2.1201099323
H -0.4210155108 4.1473169729 1.0992229106
H -1.5128441023 2.7764743071 1.5504464796
H -1.2122748745 3.8481690618 -1.5051523360
H -0.6449638502 2.4866601412 -2.5505774592
H -2.0625414335 2.2472157940 -1.4691124995
39
step=25 E=-2646.777901359332 Eh
Co -0.0461112936 -0.0692216844 0.0381259241
P 2.1462139742 -0.0279166560 0.0223729087
P 0.0051900789 2.1112705938 -0.2391846515
O -1.9440389343 0.0240478661 0.0028809360
O 0.0422762607 -1.9625427420 0.2006649225
C -2.7417457554 -0.9918768259 0.1012308719
C -2.3268233933 -2.3293521942 0.2547175777
C -0.9815757069 -2.7499520240 0.2811833783
C -4.2135743662 -0.6734748454 0.0094843619
C -0.6645926826 -4.2180304205 0.4258540131
H -3.1055698646 -3.1007039458 0.3361931472
H -4.7931118025 -1.2289412641 0.7729030229
H -4.3839698493 0.4113648616 0.1326616689
H -4.6054924724 -0.9825161098 -0.9825618187
H -1.2801876167 -4.8304174839 -0.2620690605
H 0.4068448554 -4.4037628569 0.2301367986
H -0.8995032677 -4.5561770419 1.4572546750
C 2.7187699643 1.7435646305 0.1651159371
C 1.7525459003 2.6157487815 -0.6530773698
H 3.7680912874 1.8485661751 -0.1807416623
H 2.6969116746 2.0261617229 1.2385603184
H 1.9151427917 3.7014187154 -0.4874807604
H 1.8843843742 2.4363693706 -1.7416477212
C 2.9597080576 -0.9858169159 1.3540089195
C 2.8998736605 -0.6384032608 -1.5456697495
C -0.4657754965 3.0818546489 1.2478517819
C -1.0757017982 2.7283054877 -1.5896632198
H 2.5784233554 -0.6508287757 2.3382445532
H 4.0614908568 -0.8704351709 1.3234039524
H 2.6877934858 -2.0511365217 1.2199018705
H 2.8079947497 0.1108238239 -2.3560522806
H 2.3623481605 -1.5530953283 -1.8662508399
H 3.9667826850 -0.9035786929 -1.4047597715
H 0.2032421063 2.8310273933 2.0943348381
H -0.4093044737 4.1704136181 1.0454172130
H -1.5017884679 2.8113034799 1.5324410031
H -1.2214207152 3.8257012953 -1.5197667447
H -0.6179736674 2.4813668143 -2.5672071099
H -2.0548008966 2.2182340023 -1.5109696246
39
step=26 E=-2646.778572472520 Eh
Co -0.0447799842 -0.0726613158 0.0431480650
P 2.1462468604 -0.0230834608 0.0556291973
P 0.0073394047 2.1053850229 -0.2654643606
O -1.9427657725 0.0191917619 0.0160711437
O 0.0446401536 -1.9674862123 0.1887742280
C -2.7393169696 -0.9956525924 0.1269025805
C -2.3238655691 -2.3366917912 0.2474369991
C -0.9784503555 -2.7572285482 0.2521662097
C -4.2118832300 -0.6722117056 0.0744477412
C -0.6599611450 -4.2288857647 0.3541392649
H -3.1017807219 -3.1073042449 0.3353805164
H -4.7829668512 -1.2634897193 0.8166818078
H -4.3776174507 0.4059989283 0.2510191888
H -4.6162935830 -0.9307068970 -0.9272022367
H -1.3013395037 -4.8255129137 -0.3235533648
H 0.4038825294 -4.4117349496 0.1180315816
H -0.8568860623 -4.5881031385 1.3865448516
C 2.7155092763 1.7520195947 0.1768956416
C 1.7586309058 2.6110850114 -0.6657903784
H 3.7693493384 1.8483607368 -0.1575646339
H 2.6843981291 2.0504286103 1.2454063072
H 1.9074363551 3.6997695849 -0.5089373087
H 1.9070109847 2.4187821091 -1.7495903465
C 2.9580010584 -0.9754279640 1.3912481285
C 2.8928007055 -0.6631481572 -1.4987535418
C -0.4714442919 3.0847483509 1.2154204518
C -1.0633493260 2.7353055978 -1.6210871853
H 2.6100419559 -0.6077331288 2.3761696575
H 4.0620822548 -0.9022143040 1.3350048944
H 2.6415173291 -2.0315331358 1.2837210814
H 2.6783907879 -0.0027285986 -2.3605510401
H 2.4521527691 -1.6581670953 -1.7094846264
H 3.9903740172 -0.7930295555 -1.4064736604
H 0.1965157276 2.8471986389 2.0663230295
H -0.4226278756 4.1715876321 1.0025505096
H -1.5062912113 2.8081139995 1.4982671818
H -1.1660544262 3.8372608795 -1.5622363328
H -0.6194692547 2.4632154674 -2.5976830903
H -2.0572904533 2.2602790972 -1.5219154252
39
step=27 E=-2646.779130977492 Eh
Co -0.0427606392 -0.0738713019 0.0217903684
P 2.1481406888 -0.0174010996 0.0638665366
P 0.0111804129 2.1014970423 -0.2936650486
O -1.9400403275 0.0187440894 0.0035439984
O 0.0490399262 -1.9659303943 0.1783942010
C -2.7358608058 -0.9942278924 0.1317109696
C -2.3181710942 -2.3366488163 0.2310738956
C -0.9733224360 -2.7581957445 0.2301740286
C -4.2085932386 -0.6673033151 0.1208164092
C -0.6529393694 -4.2303089994 0.3193178202
H -3.0953932007 -3.1075224050 0.3204981793
H -4.7666824058 -1.2802598027 0.8548722399
H -4.3672530738 0.4057090134 0.3325342247
H -4.6331451561 -0.8913408791 -0.8810044918
H -1.3046115909 -4.8238897434 -0.3510399215
H 0.4072746898 -4.4109417987 0.0655077119
H -0.8314416558 -4.5949674374 1.3531872559
C 2.7189393725 1.7563308258 0.1694820771
C 1.7648371681 2.6219562131 -0.6671056574
H 3.7750737192 1.8498663424 -0.1590229671
H 2.6887984185 2.0480799376 1.2404610062
H 1.9010652770 3.7079929534 -0.4843528063
H 1.9262582474 2.4510456236 -1.7525715025
C 2.9584418068 -0.9509777895 1.4136027997
C 2.8850563379 -0.7029485357 -1.4730048540
C -0.4902070701 3.0563750182 1.1972971279
C -1.0467027286 2.7616933148 -1.6413294698
H 2.6509322944 -0.5408435333 2.3952957117
H 4.0625922137 -0.9209316879 1.3271159276
H 2.6011570838 -1.9975045181 1.3474259714
H 2.6178684679 -0.1040695566 -2.3643341109
H 2.4808417972 -1.7265428499 -1.6028532450
H 3.9905650179 -0.7674365035 -1.4067370530
H 0.1737639492 2.8201815237 2.0514865855
H -0.4578752713 4.1462316417 0.9970280227
H -1.5232483886 2.7601658431 1.4667567113
H -1.0647143078 3.8687844120 -1.6155600296
H -0.6592627028 2.4205806841 -2.6203371662
H -2.0704784627 2.3668822813 -1.4980831940
39
step=28 E=-2646.779413503413 Eh
Co -0.0420670333 -0.0729358124 -0.0009573608
P 2.1495676249 -0.0182616319 0.0520442684
P 0.0155845059 2.1014868733 -0.2990698049
O -1.9387556221 0.0216177943 -0.0187934928
O 0.0518265939 -1.9615265234 0.1767916513
C -2.7346881475 -0.9907664309 0.1150594328
C -2.3143830139 -2.3320387945 0.2194593308
C -0.9702431644 -2.7551592388 0.2293884589
C -4.2075682341 -0.6645214438 0.1099314411
C -0.6489731610 -4.2253495666 0.3396357757
H -3.0916935242 -3.1036031068 0.3048484417
H -4.7655421516 -1.2905445194 0.8326118326
H -4.3664013523 0.4048246931 0.3398575487
H -4.6324252513 -0.8685856296 -0.8961931265
H -1.3067727964 -4.8314262664 -0.3132900424
H 0.4087631467 -4.4099593804 0.0781977090
H -0.8158861574 -4.5715909463 1.3817715972
C 2.7264393474 1.7514782581 0.1513733840
C 1.7675862663 2.6313679767 -0.6630320790
H 3.7803396442 1.8465744025 -0.1838800136
H 2.7066896571 2.0295380012 1.2269460089
H 1.9048110678 3.7126267202 -0.4545257338
H 1.9254833751 2.4862061973 -1.7529902597
C 2.9582114220 -0.9341182005 1.4153601224
C 2.8817090875 -0.7345105156 -1.4727529647
C -0.4949105961 3.0270100355 1.2070421857
C -1.0410766998 2.7803441189 -1.6320291090
H 2.6612729597 -0.5043160949 2.3918132296
H 4.0620953299 -0.9120432571 1.3203047377
H 2.5974877552 -1.9806106407 1.3711662454
H 2.5788920375 -0.1674924399 -2.3742045231
H 2.5046310549 -1.7724009746 -1.5668310496
H 3.9896924575 -0.7598902577 -1.4240394558
H 0.1658315361 2.7774712487 2.0598981787
H -0.4675303139 4.1209105092 1.0287382396
H -1.5281406790 2.7216338398 1.4654987757
H -1.0378769865 3.8882138110 -1.6167434579
H -0.6847406566 2.4255802133 -2.6183316244
H -2.0685946990 2.4024097101 -1.4652141876
39
step=29 E=-2646.779589348410 Eh
Co -0.0398488793 -0.0725381666 -0.0181559996
P 2.1527389950 -0.0234303489 0.0339758179
P 0.0184589096 2.1016815974 -0.2930223206
O -1.9362459965 0.0252814424 -0.0375704204
O 0.0539453045 -1.9584242981 0.1815058605
C -2.7333946548 -0.9869959241 0.0938008974
C -2.3127220685 -2.3266735583 0.2143733041
C -0.9691442674 -2.7509573290 0.2406429586
C -4.2061428368 -0.6613627151 0.0740724251
C -0.6489426857 -4.2182590517 0.3825864035
H -3.0906854262 -3.0985579575 0.2944293022
H -4.7731989948 -1.2977065623 0.7802167226
H -4.3683539900 0.4047456546 0.3169696622
H -4.6183112977 -0.8490079802 -0.9405999503
H -1.3135601966 -4.8402906756 -0.2479908728
H 0.4059717170 -4.4108743438 0.1152971049
H -0.8052911321 -4.5376603335 1.4349383148
C 2.7352406037 1.7431740960 0.1338834144
C 1.7679588992 2.6371018567 -0.6551574880
H 3.7843233216 1.8412723537 -0.2152661231
H 2.7302254136 2.0094889221 1.2129591240
H 1.9103941852 3.7136574335 -0.4259982983
H 1.9173947990 2.5153171502 -1.7493304486
C 2.9587254809 -0.9289782247 1.4063829943
C 2.8852633962 -0.7481744246 -1.4872688776
C -0.4930013162 3.0017188929 1.2272182622
C -1.0439796389 2.7890342659 -1.6137475534
H 2.6631760277 -0.4894169612 2.3788633388
H 4.0627544057 -0.9054087845 1.3099763100
H 2.6029863087 -1.9774683211 1.3733085819
H 2.5593565635 -0.1948386634 -2.3897852801
H 2.5217197383 -1.7920140501 -1.5677050640
H 3.9933052474 -0.7483357345 -1.4418949582
H 0.1684161857 2.7378119584 2.0753432756
H -0.4679703075 4.0989719970 1.0696649793
H -1.5257174063 2.6902387632 1.4805322383
H -1.0334683598 3.8972942576 -1.6064511510
H -0.7092844854 2.4225877335 -2.6039351385
H -2.0746797598 2.4224025723 -1.4373001562
39
step=30 E=-2646.779705451362 Eh
Co -0.0376848373 -0.0743061679 -0.0246795592
P 2.1556516919 -0.0299474942 0.0183008547
P 0.0204400485 2.1008915600 -0.2802353490
O -1.9342665796 0.0260359245 -0.0462945553
O 0.0531877073 -1.9593172878 0.1903972789
C -2.7332497042 -0.9861617648 0.0775127265
C -2.3143823608 -2.3245264836 0.2155795952
C -0.9712494415 -2.7494762176 0.2575507751
C -4.2052681889 -0.6604033848 0.0325517749
C -0.6532356178 -4.2138967449 0.4287025276
H -3.0934432705 -3.0958480430 0.2928525956
H -4.7877104663 -1.3094126653 0.7140043715
H -4.3728923384 0.4012073241 0.2915451476
H -4.5952449885 -0.8274365229 -0.9944887565
H -1.3289271262 -4.8496105835 -0.1757360662
H 0.3970893802 -4.4162623912 0.1504749971
H -0.7937076315 -4.5065692386 1.4911318362
C 2.7417579785 1.7358395158 0.1225987833
C 1.7668588575 2.6388283182 -0.6476448899
H 3.7854264387 1.8366625403 -0.2413750694
H 2.7503839362 1.9959153190 1.2031119575
H 1.9146800785 3.7125934153 -0.4083312148
H 1.9071357971 2.5308014452 -1.7445573528
C 2.9602188770 -0.9333011537 1.3930866066
C 2.8926936219 -0.7477369984 -1.5047268255
C -0.4868767281 2.9885301002 1.2477264946
C -1.0481840402 2.7888753382 -1.5953037300
H 2.6631932676 -0.4898686369 2.3632951332
H 4.0645071410 -0.9070552020 1.2980627282
H 2.6084430619 -1.9831022841 1.3634904075
H 2.5439227591 -0.1990707595 -2.4019401968
H 2.5524669844 -1.7991128105 -1.5893739940
H 4.0003937817 -0.7225430293 -1.4645545362
H 0.1777758210 2.7163808635 2.0908155142
H -0.4620689239 4.0873674369 1.1011348036
H -1.5186415243 2.6747458017 1.5020802633
H -1.0338809407 3.8976328092 -1.5983275394
H -0.7260770355 2.4133002225 -2.5863565898
H -2.0788694985 2.4277634127 -1.4068248890
39
step=31 E=-2646.779799348784 Eh
Co -0.0352491028 -0.0776792550 -0.0230327059
P 2.1584348528 -0.0373397848 0.0056178838
P 0.0218306967 2.0993916833 -0.2647486137
O -1.9320357854 0.0242492779 -0.0468365844
O 0.0512257395 -1.9627431984 0.2017640842
C -2.7328147910 -0.9879334957 0.0668341240
C -2.3172033468 -2.3254681668 0.2201229169
C -0.9742663704 -2.7502104380 0.2766850660
C -4.2032682703 -0.6611145502 -0.0067238449
C -0.6581220932 -4.2117642859 0.4730975715
H -3.0973600480 -3.0955860621 0.2968221228
H -4.8042638114 -1.3286912896 0.6395049890
H -4.3781061695 0.3929779492 0.2776208883
H -4.5645647681 -0.7970087580 -1.0488035771
H -1.3501180142 -4.8588409840 -0.0996573847
H 0.3849295518 -4.4248031370 0.1757848506
H -0.7735293506 -4.4783973272 1.5454979824
C 2.7468009415 1.7288227242 0.1172828926
C 1.7658789184 2.6373061696 -0.6401434595
H 3.7856070654 1.8307799600 -0.2597878896
H 2.7674606943 1.9854607570 1.1981663175
H 1.9176766606 3.7097797055 -0.3972551759
H 1.8983460404 2.5356674818 -1.7386614187
C 2.9614805150 -0.9458275567 1.3780708835
C 2.9008992246 -0.7374671132 -1.5234484131
C -0.4801518514 2.9857063830 1.2650068866
C -1.0512733141 2.7833857546 -1.5793929187
H 2.6655746161 -0.5012984823 2.3481516358
H 4.0658926081 -0.9220023717 1.2837532725
H 2.6067073428 -1.9945147199 1.3479013569
H 2.5291034846 -0.1924748662 -2.4134872261
H 2.5836829270 -1.7955628028 -1.6111381741
H 4.0076126163 -0.6847465061 -1.4891568778
H 0.1891060065 2.7125971446 2.1042168787
H -0.4554933690 4.0846618289 1.1194663953
H -1.5104512732 2.6715126840 1.5246027310
H -1.0241823301 3.8917481005 -1.5976962106
H -0.7391833628 2.3893966128 -2.5664537146
H -2.0852714135 2.4380041690 -1.3811429426
39
step=32 E=-2646.779870233729 Eh
Co -0.0336094871 -0.0814220241 -0.0158669609
P 2.1600684168 -0.0433357942 -0.0021147979
P 0.0223724144 2.0979111896 -0.2518561735
O -1.9304045279 0.0206881408 -0.0421531398
O 0.0491359797 -1.9666477906 0.2130453315
C -2.7325433146 -0.9913107469 0.0631193111
C -2.3196497273 -2.3285306177 0.2255036197
C -0.9767154188 -2.7523457882 0.2932047599
C -4.2012741368 -0.6630215903 -0.0322587310
C -0.6611622839 -4.2116896489 0.5063275206
H -3.1005567953 -3.0973502051 0.3036666497
H -4.8175090328 -1.3507799836 0.5770936257
H -4.3833506255 0.3815881213 0.2815906130
H -4.5366486586 -0.7634821236 -1.0870057207
H -1.3701539292 -4.8661465610 -0.0360205287
H 0.3733779806 -4.4337659061 0.1863477582
H -0.7478491658 -4.4582209348 1.5863325277
C 2.7488029122 1.7235921520 0.1187207394
C 1.7655812552 2.6344812692 -0.6333624683
H 3.7853462808 1.8254974526 -0.2643958706
H 2.7758068672 1.9776005666 1.1997849069
H 1.9187784079 3.7068050092 -0.3908063894
H 1.8936137463 2.5333220927 -1.7324187657
C 2.9627578933 -0.9617182201 1.3638873950
C 2.9055172762 -0.7256734449 -1.5381575358
C -0.4765595230 2.9919594313 1.2741463784
C -1.0503511197 2.7770881307 -1.5711303615
H 2.6707096975 -0.5184455474 2.3357427295
H 4.0670758781 -0.9447408554 1.2684738565
H 2.5994158667 -2.0073527735 1.3305046212
H 2.5255324581 -0.1749739123 -2.4208865497
H 2.6023896454 -1.7866930544 -1.6370589177
H 4.0114702373 -0.6583975106 -1.5055242218
H 0.1960442768 2.7248153366 2.1126215178
H -0.4525110739 4.0898224619 1.1209610710
H -1.5056291961 2.6787056157 1.5394247825
H -1.0026283804 3.8840662672 -1.6084154027
H -0.7477773578 2.3612677635 -2.5519461473
H -2.0883627261 2.4530036179 -1.3607187574
39
step=33 E=-2646.779942071657 Eh
Co -0.0322301098 -0.0859047439 -0.0052525400
P 2.1611705041 -0.0492443671 -0.0057009599
P 0.0235918476 2.0955436174 -0.2408918282
O -1.9287227413 0.0154936657 -0.0367333165
O 0.0475438436 -1.9709250504 0.2254776610
C -2.7318756899 -0.9962186553 0.0619999790
C -2.3211779453 -2.3333465970 0.2307684308
C -0.9782470976 -2.7558338475 0.3086604177
C -4.1987163188 -0.6661182095 -0.0514726430
C -0.6621450273 -4.2130269186 0.5353135820
H -3.1025415683 -3.1010684842 0.3105608877
H -4.8292318025 -1.3818630242 0.5085289542
H -4.3901576742 0.3628455685 0.3061636364
H -4.5062090508 -0.7144491011 -1.1184263022
H -1.3945227963 -4.8738981230 0.0339955126
H 0.3586890005 -4.4458544230 0.1802934874
H -0.7052017778 -4.4382244976 1.6227146616
C 2.7505430394 1.7177721187 0.1223818646
C 1.7671726315 2.6292805916 -0.6281933178
H 3.7866186045 1.8180153200 -0.2626146229
H 2.7814004299 1.9700051527 1.2035603557
H 1.9208685035 3.7019565415 -0.3879013083
H 1.8921963418 2.5251675444 -1.7272535341
C 2.9636665491 -0.9792600059 1.3523682429
C 2.9066063951 -0.7177330064 -1.5475404694
C -0.4722083278 3.0023378655 1.2786195326
C -1.0467039955 2.7705130426 -1.5657290684
H 2.6738075642 -0.5412009369 2.3273078028
H 4.0678643910 -0.9685086383 1.2568704269
H 2.5917086067 -2.0216767335 1.3121776519
H 2.5136271947 -0.1689612271 -2.4253588311
H 2.6190170712 -1.7829373697 -1.6450766681
H 4.0115291712 -0.6309380683 -1.5228014220
H 0.2019404993 2.7429306780 2.1182408217
H -0.4466529821 4.0984017573 1.1136266894
H -1.5011222018 2.6932557580 1.5491133786
H -0.9846666818 3.8760002539 -1.6132666175
H -0.7459126749 2.3410656107 -2.5409957014
H -2.0876651169 2.4600999022 -1.3515259853
39
step=34 E=-2646.780044427197 Eh
Co -0.0301704012 -0.0917915188 0.0083722264
P 2.1629153915 -0.0567397946 -0.0080683233
P 0.0257801666 2.0915995240 -0.2311949076
O -1.9259440407 0.0089107392 -0.0319802246
O 0.0467682380 -1.9755149646 0.2434970072
C -2.7305008519 -1.0019443001 0.0618275611
C -2.3217791485 -2.3388965909 0.2377505054
C -0.9791016817 -2.7599128684 0.3284720282
C -4.1949441558 -0.6687184149 -0.0681325320
C -0.6615643213 -4.2141804237 0.5704647911
H -3.1036209086 -3.1053518297 0.3193060277
H -4.8400713571 -1.4234486940 0.4183394132
H -4.4000759914 0.3319481808 0.3570110730
H -4.4684492255 -0.6351287789 -1.1449609356
H -1.4272569358 -4.8815439462 0.1325055923
H 0.3348320906 -4.4637568750 0.1606266720
H -0.6352406653 -4.4105544582 1.6641179026
C 2.7525199938 1.7095282333 0.1299982154
C 1.7713195499 2.6225805599 -0.6201790068
H 3.7899896464 1.8081881779 -0.2519786293
H 2.7840172284 1.9575693368 1.2120465161
H 1.9241331165 3.6951874208 -0.3795553829
H 1.8954347832 2.5170367619 -1.7191072955
C 2.9663495695 -1.0027616098 1.3381836406
C 2.9043380148 -0.7127457612 -1.5574128410
C -0.4703369417 3.0147831649 1.2786079718
C -1.0376282764 2.7634027320 -1.5647928687
H 2.6813315647 -0.5727821319 2.3181984737
H 4.0701659359 -1.0012546213 1.2404220818
H 2.5824062773 -2.0405269658 1.2886774754
H 2.5151867878 -0.1517057433 -2.4287883615
H 2.6175962648 -1.7769050147 -1.6650101436
H 4.0091739501 -0.6229690644 -1.5322826300
H 0.2038058061 2.7669600394 2.1216414551
H -0.4443354030 4.1082905247 1.0978078482
H -1.4994726104 2.7100512709 1.5529722322
H -0.9509908328 3.8659118140 -1.6290773917
H -0.7448469074 2.3129642317 -2.5327587977
H -2.0835099885 2.4772758448 -1.3427204704
39
step=35 E=-2646.780196351581 Eh
Co -0.0272127641 -0.1004271107 0.0271478987
P 2.1654265817 -0.0681241848 -0.0039523143
P 0.0321249263 2.0837168500 -0.2238184662
O -1.9217708615 -0.0005719117 -0.0303063054
O 0.0466077764 -1.9816535269 0.2704692941
C -2.7281669312 -1.0099722545 0.0614576272
C -2.3215674217 -2.3464195692 0.2479403279
C -0.9796580031 -2.7660754257 0.3547086816
C -4.1894864408 -0.6718520177 -0.0838814992
C -0.6593083838 -4.2162980339 0.6138714166
H -3.1040027563 -3.1116287274 0.3299475192
H -4.8488072821 -1.4833050740 0.2733985284
H -4.4200088375 0.2665797102 0.4564803089
H -4.4155406148 -0.4928036297 -1.1574264287
H -1.4764458132 -4.8876491763 0.2922873138
H 0.2828678814 -4.4972055518 0.1061151888
H -0.5046898845 -4.3694105266 1.7040222580
C 2.7578019913 1.6954942464 0.1402272307
C 1.7814789363 2.6098340218 -0.6124233556
H 3.7984699074 1.7907239969 -0.2345665309
H 2.7871170670 1.9403766959 1.2231608821
H 1.9335963025 3.6822254279 -0.3710628008
H 1.9065320838 2.5023051644 -1.7109300265
C 2.9705330437 -1.0320695099 1.3281552664
C 2.8970920862 -0.7180938814 -1.5599059010
C -0.4646196080 3.0278049475 1.2733315075
C -1.0215500179 2.7529545801 -1.5671911272
H 2.6869462485 -0.6167716529 2.3149599563
H 4.0740616230 -1.0361068784 1.2297431095
H 2.5779415477 -2.0659389141 1.2635342206
H 2.5012735490 -0.1547575621 -2.4265060764
H 2.6145023576 -1.7835438708 -1.6629997024
H 4.0015528493 -0.6185326311 -1.5442761097
H 0.2065153168 2.7913848883 2.1218953346
H -0.4344954943 4.1180197568 1.0742438738
H -1.4958101506 2.7319269753 1.5496051799
H -0.9225564786 3.8537332020 -1.6362321007
H -0.7268011602 2.2941828600 -2.5304801220
H -2.0706327958 2.4776629639 -1.3473934702
39
step=36 E=-2646.780397640526 Eh
Co -0.0246424518 -0.1064716559 0.0390466783
P 2.1680612737 -0.0775019085 0.0075770708
P 0.0401580322 2.0754400452 -0.2294349489
O -1.9181689543 -0.0064987449 -0.0353504691
O 0.0476561858 -1.9846747712 0.2939951996
C -2.7260889312 -1.0141227016 0.0623274692
C -2.3203341710 -2.3497735726 0.2581155457
C -0.9794208405 -2.7695227537 0.3743095579
C -4.1863547350 -0.6710775669 -0.0773450567
C -0.6556682628 -4.2178355883 0.6359822579
H -3.1033039129 -3.1142844678 0.3394549187
H -4.8480615484 -1.5214748725 0.1646791223
H -4.4364275793 0.1942080803 0.5680757917
H -4.3873116549 -0.3564287713 -1.1239549518
H -1.5110414816 -4.8849986864 0.4267489832
H 0.2204295186 -4.5276387572 0.0337724068
H -0.3739121380 -4.3425003556 1.7039500092
C 2.7632511877 1.6829967135 0.1520346434
C 1.7943792511 2.5983893435 -0.6075795848
H 3.8085714913 1.7760704924 -0.2105837815
H 2.7828168164 1.9268604764 1.2357169539
H 1.9448825593 3.6701242838 -0.3625928709
H 1.9265139210 2.4921991789 -1.7053182164
C 2.9761873259 -1.0505979647 1.3309717578
C 2.8872643023 -0.7332911605 -1.5521843127
C -0.4639418516 3.0313446412 1.2583491960
C -1.0023600419 2.7442634863 -1.5812227586
H 2.6931562400 -0.6469939945 2.3227567420
H 4.0795184284 -1.0540874700 1.2307990410
H 2.5830706921 -2.0836760126 1.2558197816
H 2.5142994808 -0.1500555055 -2.4158832732
H 2.5753662318 -1.7894514958 -1.6654321312
H 3.9940234448 -0.6640907035 -1.5299258515
H 0.2012764524 2.8012091128 2.1132046520
H -0.4315569365 4.1198242590 1.0501510955
H -1.4975913301 2.7398510900 1.5302121067
H -0.8986438065 3.8445257291 -1.6514106100
H -0.7066290808 2.2830540739 -2.5430727730
H -2.0538215919 2.4741876308 -1.3652344750
39
step=37 E=-2646.780613951641 Eh
Co -0.0213585593 -0.1102048327 0.0418749039
P 2.1716954669 -0.0857299349 0.0293604240
P 0.0522998930 2.0657541863 -0.2477500669
O -1.9142518071 -0.0079118286 -0.0479246035
O 0.0493069715 -1.9859246156 0.3112504815
C -2.7239075215 -1.0128761684 0.0637089196
C -2.3191211798 -2.3477379159 0.2681722184
C -0.9795971598 -2.7705820496 0.3848424104
C -4.1848907104 -0.6650655291 -0.0525750023
C -0.6544055718 -4.2203543013 0.6324655441
H -3.1032404496 -3.1116806372 0.3471181253
H -4.8427852374 -1.5404403602 0.0890583531
H -4.4453957665 0.1166677319 0.6898115530
H -4.3810978181 -0.2264110710 -1.0535269317
H -1.5374028398 -4.8762065800 0.5327664099
H 0.1395656502 -4.5549542091 -0.0645866900
H -0.2450155208 -4.3338864082 1.6590225425
C 2.7716498278 1.6718140988 0.1606185807
C 1.8104976066 2.5859317662 -0.6108340973
H 3.8209923394 1.7630691951 -0.1905878462
H 2.7772968935 1.9217680176 1.2434589152
H 1.9608622035 3.6573517994 -0.3640772549
H 1.9535115145 2.4808513156 -1.7073395917
C 2.9838003567 -1.0512162489 1.3556207916
C 2.8782865651 -0.7620953091 -1.5272374691
C -0.4614891769 3.0203240359 1.2379219156
C -0.9838632162 2.7338662358 -1.6022241353
H 2.6951910814 -0.6528340069 2.3477918498
H 4.0873791867 -1.0410817932 1.2562296449
H 2.6060462915 -2.0898035817 1.2779158557
H 2.5208989693 -0.1741602406 -2.3948627813
H 2.5358373477 -1.8094184459 -1.6377636847
H 3.9865518796 -0.7275162720 -1.5025659675
H 0.1955918256 2.7849854161 2.0976789263
H -0.4257999905 4.1098521289 1.0354231014
H -1.4981588817 2.7300083315 1.4997244959
H -0.9081072744 3.8379432934 -1.6547336207
H -0.6720394389 2.2954218336 -2.5699187445
H -2.0318620185 2.4366916826 -1.4023812550
39
step=38 E=-2646.780708202680 Eh
Co -0.0185368939 -0.1111610151 0.0349361897
P 2.1746632960 -0.0892520977 0.0417809810
P 0.0594428484 2.0608856006 -0.2613493136
O -1.9118096384 -0.0049685267 -0.0546663443
O 0.0496134072 -1.9869656447 0.3125735787
C -2.7228245186 -1.0079122204 0.0663761224
C -2.3199092562 -2.3430305348 0.2729669269
C -0.9811347881 -2.7697092874 0.3834497539
C -4.1847032479 -0.6578483054 -0.0325198340
C -0.6590284076 -4.2226752589 0.6159361358
H -3.1054820918 -3.1059184547 0.3513997879
H -4.8399593066 -1.5386352462 0.0881104550
H -4.4413944435 0.0955098062 0.7404714188
H -4.3902929273 -0.1858414843 -1.0155892621
H -1.5511039706 -4.8704369822 0.5480793104
H 0.1004134733 -4.5625961944 -0.1167248098
H -0.2073659923 -4.3443159561 1.6230863614
C 2.7765091220 1.6686554143 0.1623490582
C 1.8174122470 2.5811756043 -0.6157776426
H 3.8258935829 1.7602203857 -0.1878804071
H 2.7757614563 1.9251803693 1.2437120086
H 1.9689082695 3.6528331778 -0.3700906327
H 1.9667585417 2.4764598953 -1.7115672681
C 2.9887397784 -1.0391893260 1.3780120831
C 2.8803982556 -0.7770427729 -1.5107352002
C -0.4612872604 3.0038765368 1.2289501933
C -0.9782122851 2.7265056446 -1.6144319140
H 2.6988609729 -0.6313562260 2.3658625011
H 4.0923256459 -1.0200107770 1.2773214659
H 2.6228224668 -2.0825945882 1.3113533182
H 2.5313944079 -0.1893889998 -2.3823767215
H 2.5239268189 -1.8197435021 -1.6239309060
H 3.9887074890 -0.7625801370 -1.4805199064
H 0.1931893880 2.7604508284 2.0885754119
H -0.4272479317 4.0957914227 1.0392642129
H -1.4980215632 2.7078210864 1.4841412079
H -0.9197986258 3.8323760466 -1.6622759496
H -0.6612744337 2.2972571578 -2.5848019808
H -2.0231395532 2.4144386846 -1.4193658189
39
step=39 E=-2646.780734273106 Eh
Co -0.0157770475 -0.1145606037 0.0314568567
P 2.1772535087 -0.0947195724 0.0464487795
P 0.0641019316 2.0565592636 -0.2642671262
O -1.9093289039 -0.0050217114 -0.0555233274
O 0.0486103713 -1.9909364965 0.3139858395
C -2.7219252065 -1.0064042233 0.0680862217
C -2.3219011639 -2.3420676816 0.2769020320
C -0.9834996874 -2.7712269843 0.3856790135
C -4.1831477051 -0.6531972082 -0.0298145812
C -0.6640619277 -4.2251564029 0.6165321299
H -3.1089145168 -3.1032429587 0.3567301543
H -4.8395631271 -1.5365854417 0.0617343116
H -4.4441472739 0.0755218766 0.7653440326
H -4.3830031380 -0.1508726719 -0.9987549371
H -1.5622459601 -4.8669760562 0.5822988573
H 0.0662688506 -4.5744615005 -0.1411929165
H -0.1772680613 -4.3449000112 1.6072569209
C 2.7802058242 1.6644240539 0.1624710350
C 1.8208380004 2.5757853831 -0.6182242016
H 3.8282767295 1.7552116524 -0.1913820231
H 2.7799577945 1.9252391271 1.2426463477
H 1.9743175137 3.6480522805 -0.3761101028
H 1.9712879752 2.4685903352 -1.7136844322
C 2.9908516748 -1.0356200705 1.3892591943
C 2.8869859737 -0.7831763978 -1.5040416234
C -0.4579135029 2.9936156679 1.2288852792
C -0.9765212522 2.7187202468 -1.6166100158
H 2.7003901916 -0.6191557111 2.3733183073
H 4.0944680944 -1.0133321790 1.2885574450
H 2.6291233171 -2.0808939953 1.3313004197
H 2.5280743231 -0.2046279272 -2.3777708035
H 2.5394462927 -1.8295006099 -1.6126808359
H 3.9951439048 -0.7611529389 -1.4773618543
H 0.1966796818 2.7459534030 2.0872971306
H -0.4244096507 4.0866258621 1.0455728252
H -1.4941865891 2.6946196812 1.4824214853
H -0.9260614503 3.8251197179 -1.6644002188
H -0.6557735896 2.2916270647 -2.5867221168
H -2.0194094729 2.3992115738 -1.4228628668
39
step=40 E=-2646.780747239321 Eh
Co -0.0146750327 -0.1166008126 0.0273046421
P 2.1781686985 -0.0965920490 0.0478745798
P 0.0650437504 2.0549141007 -0.2666719859
O -1.9085831398 -0.0050660881 -0.0534499560
O 0.0477235293 -1.9937424855 0.3099062156
C -2.7219101210 -1.0057273833 0.0714191764
C -2.3232619544 -2.3420409017 0.2778294186
C -0.9848711162 -2.7725359013 0.3831645980
C -4.1832234254 -0.6509207012 -0.0210694771
C -0.6673847352 -4.2279141172 0.6089292506
H -3.1110748979 -3.1020741211 0.3602209680
H -4.8399798848 -1.5333526376 0.0785865258
H -4.4400247754 0.0814607951 0.7720712334
H -4.3872109642 -0.1544826283 -0.9920168864
H -1.5671541065 -4.8675608913 0.5725451423
H 0.0606658595 -4.5759057082 -0.1516473723
H -0.1802120670 -4.3527408379 1.5986360351
C 2.7801478794 1.6642097462 0.1627462446
C 1.8208902536 2.5735449386 -0.6209963827
H 3.8276428552 1.7540930510 -0.1928591315
H 2.7804739717 1.9278439798 1.2420640093
H 1.9749084807 3.6467684079 -0.3833926712
H 1.9720924010 2.4619810701 -1.7159524124
C 2.9893416467 -1.0314747063 1.3963618025
C 2.8949586167 -0.7838977580 -1.5000264276
C -0.4575459783 2.9885789648 1.2281724918
C -0.9769923945 2.7158557989 -1.6190161270
H 2.6985095263 -0.6073943356 2.3770786148
H 4.0930520280 -1.0098132610 1.2965780097
H 2.6274330741 -2.0769928690 1.3454507742
H 2.5419686759 -0.2044081997 -2.3754270759
H 2.5462861209 -1.8294908331 -1.6122648269
H 4.0030383628 -0.7657622036 -1.4684224173
H 0.1975231806 2.7395325440 2.0858439616
H -0.4250549446 4.0820706081 1.0476923392
H -1.4932594819 2.6872268169 1.4810820519
H -0.9255630492 3.8220293315 -1.6691243094
H -0.6556015441 2.2864458184 -2.5878605224
H -2.0197123245 2.3969302718 -1.4242893102
39
step=41 E=-2646.780754545122 Eh
Co -0.0135603502 -0.1198472402 0.0250160608
P 2.1791004912 -0.0998831690 0.0484053485
P 0.0661437791 2.0524754569 -0.2673539352
O -1.9075366428 -0.0068380496 -0.0512238384
O 0.0472312801 -1.9971271254 0.3078021728
C -2.7216103756 -1.0068334720 0.0743697394
C -2.3239933350 -2.3436841024 0.2789463981
C -0.9856150515 -2.7749733104 0.3829735303
C -4.1825930194 -0.6499433949 -0.0155594899
C -0.6687121629 -4.2305778004 0.6086779155
H -3.1123493317 -3.1027504572 0.3637138268
H -4.8404163659 -1.5322916418 0.0770924258
H -4.4389333843 0.0768248769 0.7828871421
H -4.3853283777 -0.1458013986 -0.9828110567
H -1.5701938448 -4.8683110848 0.5853506146
H 0.0487260193 -4.5819341590 -0.1604660017
H -0.1685050326 -4.3539216366 1.5920296977
C 2.7805203278 1.6618608216 0.1629559946
C 1.8218435541 2.5696948569 -0.6230870488
H 3.8279756262 1.7502819510 -0.1931774278
H 2.7818597207 1.9271564434 1.2417636747
H 1.9764510722 3.6437404305 -0.3896779759
H 1.9727390722 2.4535500132 -1.7176188712
C 2.9862411460 -1.0320049231 1.4012598926
C 2.9021870161 -0.7873631046 -1.4962111453
C -0.4555349981 2.9856890676 1.2280003262
C -0.9761840895 2.7135724840 -1.6197971581
H 2.6943093746 -0.6030919909 2.3795802071
H 4.0901516051 -1.0127931749 1.3036937653
H 2.6219445060 -2.0768610767 1.3541597352
H 2.5521740834 -0.2102383168 -2.3742595547
H 2.5565317388 -1.8340346495 -1.6077532159
H 4.0101900094 -0.7671916559 -1.4613595684
H 0.1995786371 2.7362835843 2.0855171011
H -0.4225887424 4.0791738946 1.0476605697
H -1.4912760914 2.6844578164 1.4808771060
H -0.9237382312 3.8195652975 -1.6699522259
H -0.6532543561 2.2838329087 -2.5879373712
H -2.0187519105 2.3944973127 -1.4251902114
39
step=42 E=-2646.780761617482 Eh
Co -0.0127999380 -0.1230467621 0.0216393025
P 2.1797586225 -0.1026856030 0.0488874850
P 0.0669825049 2.0499916486 -0.2693634661
O -1.9068240326 -0.0089568653 -0.0493590209
O 0.0474600372 -2.0001144515 0.3042475369
C -2.7212929760 -1.0084714104 0.0779471772
C -2.3238407801 -2.3457708478 0.2796160036
C -0.9854496967 -2.7775925446 0.3814102583
C -4.1823028704 -0.6503016500 -0.0063710833
C -0.6686357667 -4.2334035017 0.6060514131
H -3.1123983940 -3.1043549485 0.3665949389
H -4.8405195899 -1.5321322576 0.0883348148
H -4.4350702998 0.0767365221 0.7929237887
H -4.3880331551 -0.1458520698 -0.9728586340
H -1.5710628287 -4.8700048115 0.5907661163
H 0.0418644444 -4.5863581614 -0.1688480402
H -0.1599869170 -4.3563816253 1.5850689006
C 2.7807193833 1.6595102974 0.1622282865
C 1.8229992662 2.5657949188 -0.6261658602
H 3.8285646505 1.7464310570 -0.1933165396
H 2.7826779313 1.9262565937 1.2406584044
H 1.9779288737 3.6405966395 -0.3965889656
H 1.9734999225 2.4451465530 -1.7202779582
C 2.9805939348 -1.0319221578 1.4075523697
C 2.9102429544 -0.7941286367 -1.4901580764
C -0.4531918629 2.9825758570 1.2269020493
C -0.9750493220 2.7135952858 -1.6209583662
H 2.6864201957 -0.5986431874 2.3833027696
H 4.0848514831 -1.0161753042 1.3137420345
H 2.6131442074 -2.0758137343 1.3632478264
H 2.5678638520 -0.2187532419 -2.3723102847
H 2.5636668962 -1.8406506997 -1.6003148809
H 4.0181481673 -0.7759703679 -1.4492452122
H 0.2014796669 2.7320792933 2.0844017935
H -0.4190510397 4.0760842377 1.0469115868
H -1.4893634685 2.6824558709 1.4793578887
H -0.9222768594 3.8196089146 -1.6684171688
H -0.6506921571 2.2861757208 -2.5896302500
H -2.0175515710 2.3936201271 -1.4276731669
39
step=43 E=-2646.780766653867 Eh
Co -0.0120353415 -0.1258526205 0.0189973466
P 2.1805860372 -0.1055356482 0.0494725677
P 0.0681645731 2.0474311899 -0.2711237433
O -1.9060489410 -0.0109447703 -0.0482488801
O 0.0482854887 -2.0025064439 0.3019770879
C -2.7206669052 -1.0101238774 0.0808168390
C -2.3230755892 -2.3476605343 0.2808859600
C -0.9847317237 -2.7799010859 0.3808347945
C -4.1817134238 -0.6513019032 0.0007737004
C -0.6676992436 -4.2356355572 0.6052410432
H -3.1116708669 -3.1060886332 0.3691492031
H -4.8400810671 -1.5327601743 0.0976114711
H -4.4315559683 0.0762983324 0.8004645042
H -4.3901970544 -0.1468592488 -0.9651689558
H -1.5708241211 -4.8713594970 0.5987528533
H 0.0356898200 -4.5907226462 -0.1752288477
H -0.1503813361 -4.3574449630 1.5798317052
C 2.7816654728 1.6565303023 0.1609647740
C 1.8246372220 2.5620107888 -0.6287159510
H 3.8298774144 1.7426763093 -0.1938300170
H 2.7837376066 1.9242071415 1.2392136843
H 1.9800271664 3.6372128156 -0.4014056855
H 1.9744793804 2.4386620890 -1.7226325400
C 2.9749120091 -1.0324595773 1.4136683548
C 2.9168453149 -0.8029688671 -1.4839243011
C -0.4502790394 2.9795061293 1.2260873565
C -0.9736470423 2.7139595425 -1.6213363486
H 2.6787445238 -0.5958578292 2.3873360738
H 4.0795109731 -1.0203981924 1.3234445562
H 2.6043973849 -2.0753648169 1.3709648284
H 2.5812223765 -0.2297592617 -2.3701151989
H 2.5684157024 -1.8491099121 -1.5920589215
H 4.0245839618 -0.7874070721 -1.4371191138
H 0.2039606344 2.7275540612 2.0834594653
H -0.4147261121 4.0730730958 1.0466717250
H -1.4869652529 2.6808984991 1.4782867001
H -0.9211982886 3.8201241147 -1.6658383350
H -0.6493087390 2.2892913297 -2.5912361276
H -2.0161545233 2.3932538179 -1.4289754145
39
step=44 E=-2646.780769734060 Eh
Co -0.0113178897 -0.1279706458 0.0180319059
P 2.1814758173 -0.1080947390 0.0505997903
P 0.0696135191 2.0451055260 -0.2721005131
O -1.9053458432 -0.0125556886 -0.0471932181
O 0.0492202108 -2.0043764973 0.3012875084
C -2.7199910083 -1.0115244964 0.0830815190
C -2.3222516281 -2.3491272421 0.2828308210
C -0.9839839701 -2.7817061561 0.3812487580
C -4.1810953157 -0.6526285513 0.0050906533
C -0.6668390341 -4.2374140306 0.6051328353
H -3.1108586883 -3.1075512836 0.3715791421
H -4.8394527068 -1.5336385749 0.1059448856
H -4.4289279719 0.0775072404 0.8030872441
H -4.3917244904 -0.1509565486 -0.9618557194
H -1.5704252995 -4.8725202935 0.6042518980
H 0.0317524108 -4.5938617745 -0.1790702600
H -0.1439660195 -4.3587478850 1.5767886354
C 2.7831533374 1.6535938405 0.1598136539
C 1.8263812819 2.5586371537 -0.6305292787
H 3.8314858311 1.7395381557 -0.1946938393
H 2.7850094694 1.9221496496 1.2378954117
H 1.9823663529 3.6340165928 -0.4044767596
H 1.9755769360 2.4339066293 -1.7243924957
C 2.9706591618 -1.0330790338 1.4192084705
C 2.9213449136 -0.8113443747 -1.4783474832
C -0.4470827257 2.9772270291 1.2257254688
C -0.9724095227 2.7135839743 -1.6209793276
H 2.6731226815 -0.5940661740 2.3913589633
H 4.0755182695 -1.0239534713 1.3316278351
H 2.5979046265 -2.0752515609 1.3774119202
H 2.5896324275 -0.2403764571 -2.3675053940
H 2.5710878086 -1.8571264620 -1.5842311425
H 4.0289225159 -0.7979839746 -1.4276276525
H 0.2070019388 2.7239951099 2.0828300553
H -0.4101876533 4.0708296630 1.0467497428
H -1.4841540171 2.6800875580 1.4781328962
H -0.9208324825 3.8199442686 -1.6633237048
H -0.6487717527 2.2911031650 -2.5920887880
H -2.0148855542 2.3922874133 -1.4290118629
39
step=45 E=-2646.780771454561 Eh
Co -0.0104394345 -0.1299351494 0.0189240692
P 2.1825502004 -0.1109476276 0.0525794059
P 0.0714555028 2.0426933875 -0.2721000607
O -1.9044743134 -0.0140583588 -0.0456620184
O 0.0499916827 -2.0063423352 0.3021947887
C -2.7192115575 -1.0128262873 0.0851672536
C -2.3216347279 -2.3504545312 0.2854377461
C -0.9834884556 -2.7834614362 0.3827579421
C -4.1802765941 -0.6538704921 0.0071747797
C -0.6664890028 -4.2392600661 0.6059057620
H -3.1103686068 -3.1087599462 0.3743238864
H -4.8387685806 -1.5343112448 0.1120131891
H -4.4271318739 0.0794510187 0.8025373241
H -4.3917800505 -0.1558968090 -0.9615130792
H -1.5705419503 -4.8737033545 0.6093188514
H 0.0281278280 -4.5967246978 -0.1813961435
H -0.1392417793 -4.3606048108 1.5751699340
C 2.7850800998 1.6503914337 0.1594199566
C 1.8283526565 2.5551191702 -0.6314970958
H 3.8333526667 1.7362820822 -0.1951997383
H 2.7865545897 1.9199574806 1.2372737765
H 1.9850442507 3.6306050645 -0.4064069599
H 1.9770635392 2.4294854566 -1.7253347119
C 2.9681490102 -1.0342293713 1.4244841476
C 2.9242194361 -0.8189437306 -1.4733264874
C -0.4436961257 2.9757715912 1.2257024196
C -0.9710301793 2.7116795360 -1.6202286002
H 2.6701343258 -0.5930233038 2.3954682758
H 4.0731631348 -1.0275464855 1.3384076081
H 2.5935809856 -2.0758078771 1.3837222552
H 2.5944002589 -0.2497828688 -2.3643867400
H 2.5725008551 -1.8644272788 -1.5774298553
H 4.0316673755 -0.8071906011 -1.4203043795
H 0.2105009986 2.7219688986 2.0825593213
H -0.4057165953 4.0693086037 1.0465392458
H -1.4809668192 2.6798662275 1.4787593733
H -0.9196496274 3.8181281042 -1.6622469187
H -0.6487083844 2.2895502174 -2.5919436063
H -2.0135754685 2.3908032228 -1.4276575680
39
step=46 E=-2646.780772507559 Eh
Co -0.0090896571 -0.1327515844 0.0218605718
P 2.1840869939 -0.1152301079 0.0563510087
P 0.0743091918 2.0392031977 -0.2712440441
O -1.9031047294 -0.0162094741 -0.0430488682
O 0.0507033970 -2.0093630497 0.3048248053
C -2.7181742059 -1.0146139743 0.0879831907
C -2.3211638247 -2.3523046416 0.2892444723
C -0.9832161380 -2.7859903180 0.3856518149
C -4.1790953014 -0.6553747318 0.0086566684
C -0.6667649596 -4.2420790031 0.6075236521
H -3.1102268374 -3.1102741419 0.3782025601
H -4.8379960701 -1.5348724787 0.1187463493
H -4.4252568574 0.0827009544 0.7997913483
H -4.3907705543 -0.1630221630 -0.9628887485
H -1.5715110844 -4.8755076143 0.6155031468
H 0.0232194230 -4.6005343363 -0.1834385972
H -0.1346084115 -4.3639713337 1.5739950847
C 2.7879285461 1.6457728735 0.1598980105
C 1.8312889349 2.5499519390 -0.6320747213
H 3.8360385345 1.7312144348 -0.1951786014
H 2.7890891524 1.9170210566 1.2373264257
H 1.9889484363 3.6256135837 -0.4084557657
H 1.9796098879 2.4229413752 -1.7258139057
C 2.9666205792 -1.0362339962 1.4316080669
C 2.9267117328 -0.8282243032 -1.4667776401
C -0.4390448397 2.9745109925 1.2258344714
C -0.9687915785 2.7075341807 -1.6191421040
H 2.6685034741 -0.5922370104 2.4012643510
H 4.0717488526 -1.0319548066 1.3466229059
H 2.5902677993 -2.0772478644 1.3926036766
H 2.5978418300 -0.2609932887 -2.3594331448
H 2.5735615704 -1.8734366251 -1.5687403648
H 4.0340631221 -0.8178174171 -1.4123994192
H 0.2153635755 2.7207059989 2.0825441330
H -0.3997665551 4.0678320946 1.0456555567
H -1.4764880317 2.6801293793 1.4799465733
H -0.9171552844 3.8139850438 -1.6620822645
H -0.6478999664 2.2845170536 -2.5909476004
H -2.0114280628 2.3876078543 -1.4253943255
39
step=47 E=-2646.780772958989 Eh
Co -0.0065837362 -0.1380414355 0.0285267038
P 2.1867519984 -0.1232499221 0.0640599788
P 0.0795651922 2.0328132250 -0.2690948834
O -1.9004796491 -0.0201708336 -0.0380851262
O 0.0515250606 -2.0150533641 0.3109529424
C -2.7163796957 -1.0178180221 0.0929376881
C -2.3207168914 -2.3556848289 0.2958874782
C -0.9831777247 -2.7906829481 0.3916377204
C -4.1769234909 -0.6576911353 0.0105706037
C -0.6680202132 -4.2473750934 0.6113997929
H -3.1105124210 -3.1128638121 0.3849302712
H -4.8368066360 -1.5354221809 0.1286121127
H -4.4222854192 0.0881326721 0.7945825361
H -4.3880006132 -0.1744542303 -0.9657202363
H -1.5740192441 -4.8788674338 0.6270297470
H 0.0140484453 -4.6075220225 -0.1857151960
H -0.1275333095 -4.3703466043 1.5730316535
C 2.7929619329 1.6372999488 0.1619451897
C 1.8367730629 2.5404035677 -0.6322607076
H 3.8408484425 1.7211658121 -0.1939935173
H 2.7940882142 1.9117505058 1.2385387778
H 1.9960152287 3.6164370829 -0.4114761448
H 1.9847299911 2.4105947785 -1.7257252487
C 2.9659195350 -1.0404156403 1.4438597211
C 2.9296079370 -0.8433196653 -1.4556077430
C -0.4311909078 2.9728262011 1.2259997867
C -0.9641265178 2.6989552185 -1.6176071672
H 2.6680713771 -0.5919046449 2.4115005618
H 4.0711415065 -1.0392195636 1.3598524066
H 2.5872298745 -2.0807134945 1.4083063580
H 2.6018324118 -0.2784302317 -2.3501486802
H 2.5742173909 -1.8880537214 -1.5544847215
H 4.0368750578 -0.8347711116 -1.4001484118
H 0.2234086886 2.7198396243 2.0828285296
H -0.3898586772 4.0656342201 1.0432342971
H -1.4689300073 2.6809826450 1.4817850835
H -0.9112064507 3.8052570783 -1.6634152204
H -0.6450749517 2.2730274888 -2.5887383670
H -2.0070006760 2.3811271258 -1.4217738788
39
step=48 E=-2646.780772503756 Eh
Co -0.0028214200 -0.1462804967 0.0389745007
P 2.1905359584 -0.1354540090 0.0760466522
P 0.0873900826 2.0232439941 -0.2653481087
O -1.8964551424 -0.0262374173 -0.0310021608
O 0.0523264880 -2.0237059133 0.3211537192
C -2.7138663247 -1.0226347589 0.0998001313
C -2.3204186952 -2.3608055994 0.3050643236
C -0.9835358798 -2.7977544787 0.4011712467
C -4.1737627212 -0.6608394902 0.0128517813
C -0.6705951703 -4.2552706247 0.6188306012
H -3.1114098740 -3.1166782656 0.3942725256
H -4.8353066922 -1.5358221764 0.1415605174
H -4.4179835214 0.0957014629 0.7867665785
H -4.3835573893 -0.1902506456 -0.9699558732
H -1.5783727759 -4.8838292604 0.6451869839
H 0.0004910075 -4.6182110485 -0.1864171174
H -0.1187403571 -4.3794107922 1.5737300861
C 2.8002307288 1.6244994759 0.1659494056
C 1.8451016531 2.5260730363 -0.6316108802
H 3.8479092607 1.7051159768 -0.1912274976
H 2.8021853176 1.9036497615 1.2412924794
H 2.0065261410 3.6026635553 -0.4151098539
H 1.9926377927 2.3918466395 -1.7245949324
C 2.9667019963 -1.0471187301 1.4612263865
C 2.9326888157 -0.8642372790 -1.4397268755
C -0.4202443195 2.9703178728 1.2264209740
C -0.9564273752 2.6857535328 -1.6156096986
H 2.6692831992 -0.5926568907 2.4262169021
H 4.0719850488 -1.0488955809 1.3780028149
H 2.5857697034 -2.0867639271 1.4309154122
H 2.6062922896 -0.3018430426 -2.3363178304
H 2.5744479210 -1.9083304904 -1.5345824242
H 4.0399156293 -0.8577560594 -1.3837193353
H 0.2342531395 2.7189495854 2.0838182259
H -0.3760917979 4.0623047238 1.0394988873
H -1.4585168318 2.6820845620 1.4840888434
H -0.9012495647 3.7917121081 -1.6661099934
H -0.6389594182 2.2550545297 -2.5851393181
H -1.9996725894 2.3707952025 -1.4173756181
39
step=49 E=-2646.780772589445 Eh
Co -0.0005326239 -0.1515207472 0.0460743959
P 2.1926258341 -0.1430309008 0.0839467931
P 0.0921064232 2.0174957485 -0.2623340149
O -1.8939047997 -0.0299923920 -0.0272268198
O 0.0524074761 -2.0289532584 0.3289623384
C -2.7124502301 -1.0255474314 0.1031752281
C -2.3205610448 -2.3639060253 0.3099481078
C -0.9841493960 -2.8020116222 0.4079695907
C -4.1718523123 -0.6624846330 0.0130014196
C -0.6728335538 -4.2598991303 0.6257684315
H -3.1123753060 -3.1188953184 0.3990686482
H -4.8345617836 -1.5357816771 0.1470610898
H -4.4156375224 0.0999118460 0.7812011404
H -4.3803281619 -0.1987852357 -0.9734113222
H -1.5816120706 -4.8867658221 0.6570172106
H -0.0065970885 -4.6248051575 -0.1826796747
H -0.1161474904 -4.3841534109 1.5777882262
C 2.8044479416 1.6165781668 0.1696241730
C 1.8503613567 2.5174619044 -0.6298426950
H 3.8521387858 1.6944025957 -0.1881953817
H 2.8077104504 1.8983705774 1.2442560988
H 2.0128903208 3.5943480482 -0.4156685140
H 1.9978066200 2.3806604792 -1.7225084103
C 2.9694712853 -1.0520361894 1.4704555361
C 2.9327261064 -0.8749696275 -1.4312508210
C -0.4146163327 2.9689330935 1.2269575858
C -0.9508401656 2.6773460042 -1.6146667364
H 2.6725279468 -0.5952381739 2.4345110268
H 4.0747009686 -1.0537533989 1.3866740909
H 2.5886577904 -2.0917937933 1.4430479362
H 2.6063679902 -0.3129544334 -2.3280687265
H 2.5733107297 -1.9187849833 -1.5243455174
H 4.0400388652 -0.8689673499 -1.3764052669
H 0.2394049698 2.7190335938 2.0851394096
H -0.3691096739 4.0603723683 1.0371885794
H -1.4532967763 2.6826206615 1.4851103677
H -0.8938770247 3.7829826040 -1.6686354429
H -0.6333321642 2.2430777516 -2.5825810529
H -1.9944014414 2.3640776919 -1.4156383120
39
step=50 E=-2646.780773196849 Eh
Co 0.0002144574 -0.1535896681 0.0480419690
P 2.1931075951 -0.1455522348 0.0867222719
P 0.0934480292 2.0157411660 -0.2609864891
O -1.8930028128 -0.0313184544 -0.0268090224
O 0.0521510936 -2.0306325705 0.3323859509
C -2.7121193535 -1.0264965085 0.1035305411
C -2.3208241259 -2.3649061469 0.3108202236
C -0.9846233533 -2.8033472839 0.4108371791
C -4.1713065488 -0.6627682747 0.0125709906
C -0.6740105444 -4.2611548884 0.6303026187
H -3.1129618821 -3.1195539402 0.3999075876
H -4.8344737927 -1.5355983883 0.1473988790
H -4.4148636787 0.1007501127 0.7796962228
H -4.3793183869 -0.2002245536 -0.9745057139
H -1.5830592884 -4.8876041688 0.6617640784
H -0.0075570616 -4.6271469135 -0.1774919881
H -0.1176938627 -4.3846008802 1.5826340952
C 2.8054558499 1.6139878500 0.1717653038
C 1.8521727133 2.5148574300 -0.6281924963
H 3.8533610067 1.6902199394 -0.1859561460
H 2.8098298469 1.8963230573 1.2462641993
H 2.0148655721 3.5918324079 -0.4146642914
H 1.9996036472 2.3771266238 -1.7207357739
C 2.9718813694 -1.0542182512 1.4722967619
C 2.9318307412 -0.8768573457 -1.4294236930
C -0.4139528086 2.9680214381 1.2274573510
C -0.9481898936 2.6749478061 -1.6146994460
H 2.6751510168 -0.5976311760 2.4365476007
H 4.0770324722 -1.0544920200 1.3876306904
H 2.5922478906 -2.0944143019 1.4456399695
H 2.6053494645 -0.3143561893 -2.3258817224
H 2.5725730538 -1.9207404668 -1.5222998137
H 4.0392507903 -0.8704836611 -1.3757452474
H 0.2394503905 2.7186798621 2.0862489610
H -0.3683640313 4.0593286426 1.0369133294
H -1.4528833999 2.6819849207 1.4849399763
H -0.8905091763 3.7804329670 -1.6697345503
H -0.6296400654 2.2395069314 -2.5817468127
H -1.9919344618 2.3618926628 -1.4163335048
39
step=51 E=-2646.780772873969 Eh
Co 0.0017129155 -0.1573813565 0.0517211944
P 2.1943905714 -0.1504943612 0.0917317177
P 0.0963775877 2.0119774380 -0.2589366475
O -1.8913059372 -0.0339723477 -0.0254453323
O 0.0522043025 -2.0339070507 0.3384619093
C -2.7111993463 -1.0285408534 0.1050257555
C -2.3208715139 -2.3669876309 0.3137868132
C -0.9850456662 -2.8060296129 0.4163522555
C -4.1700482859 -0.6639625913 0.0122711970
C -0.6754708767 -4.2637099517 0.6380791457
H -3.1135290174 -3.1210989472 0.4028312164
H -4.8339635115 -1.5358075126 0.1497392685
H -4.4132522641 0.1025450977 0.7764892138
H -4.3773271946 -0.2047769730 -0.9765595491
H -1.5850064869 -4.8893241278 0.6717088544
H -0.0103488240 -4.6317458968 -0.1699137161
H -0.1179516904 -4.3858933870 1.5898532515
C 2.8080106294 1.6086831759 0.1749883327
C 1.8557931438 2.5094573196 -0.6259604268
H 3.8561039692 1.6829163355 -0.1827379320
H 2.8134402829 1.8922526692 1.2491757381
H 2.0189802338 3.5865540379 -0.4134737493
H 2.0032061599 2.3703891055 -1.7183315082
C 2.9741407855 -1.0584894669 1.4771371213
C 2.9317620318 -0.8828739091 -1.4245892681
C -0.4112762588 2.9661016164 1.2281774648
C -0.9436349108 2.6704351251 -1.6142678655
H 2.6774735644 -0.6017759793 2.4413616532
H 4.0792514539 -1.0579157540 1.3920071841
H 2.5952481493 -2.0989676479 1.4512040087
H 2.6055320385 -0.3203963503 -2.3211493055
H 2.5720109651 -1.9266532756 -1.5166840447
H 4.0392484571 -0.8768800215 -1.3716238987
H 0.2413919075 2.7173452880 2.0876814505
H -0.3650255286 4.0571650278 1.0363723759
H -1.4505994248 2.6810479783 1.4851961821
H -0.8848722741 3.7757609324 -1.6707816502
H -0.6244586673 2.2334284019 -2.5804086600
H -1.9877647538 2.3582685274 -1.4165005108
39
step=52 E=-2646.780772958039 Eh
Co 0.0024191842 -0.1591218597 0.0530025786
P 2.1950586782 -0.1526853966 0.0937938378
P 0.0977078395 2.0102412646 -0.2580802368
O -1.8905345778 -0.0352105218 -0.0250747158
O 0.0523472483 -2.0352970860 0.3414814462
C -2.7107303229 -1.0294974132 0.1056422869
C -2.3207911110 -2.3679057863 0.3154329353
C -0.9851485942 -2.8071537077 0.4193229354
C -4.1694484667 -0.6646559598 0.0120221958
C -0.6759997119 -4.2646644016 0.6426326823
H -3.1136674295 -3.1217987055 0.4045293798
H -4.8336431713 -1.5361223369 0.1505298239
H -4.4125993971 0.1030044244 0.7750961647
H -4.3764008576 -0.2067804035 -0.9774904128
H -1.5857015472 -4.8900055212 0.6768854488
H -0.0109219336 -4.6337965856 -0.1649016200
H -0.1185732308 -4.3859411893 1.5945759970
C 2.8091761794 1.6062726717 0.1766881658
C 1.8574712144 2.5071157994 -0.6246862424
H 3.8573924903 1.6799425428 -0.1808302887
H 2.8146632698 1.8901901751 1.2507961482
H 2.0208545686 3.5842300803 -0.4124547752
H 2.0049903966 2.3676684824 -1.7169934847
C 2.9748346565 -1.0608628566 1.4790481255
C 2.9321542903 -0.8854465076 -1.4225370468
C -0.4102292715 2.9648561084 1.2285919514
C -0.9414332876 2.6687315657 -1.6140345763
H 2.6780878438 -0.6044896048 2.4434069896
H 4.0799463721 -1.0600797849 1.3939052771
H 2.5961227129 -2.1014003481 1.4528300632
H 2.6061085355 -0.3231526146 -2.3192920667
H 2.5722024694 -1.9291879021 -1.5143818722
H 4.0396490292 -0.8798433539 -1.3696222180
H 0.2420971769 2.7161902649 2.0883779104
H -0.3637303815 4.0558568260 1.0364785982
H -1.4497153461 2.6801318277 1.4853336987
H -0.8822940496 3.7740397270 -1.6708604655
H -0.6220648611 2.2313385670 -2.5799430183
H -1.9857929203 2.3570074162 -1.4167037293
39
step=53 E=-2646.780773248329 Eh
Co 0.0026301285 -0.1595855013 0.0532061005
P 2.1953219255 -0.1532626678 0.0942377401
P 0.0980954908 2.0097162205 -0.2578863216
O -1.8903291594 -0.0355581845 -0.0250373283
O 0.0524576370 -2.0356398775 0.3424516407
C -2.7105628773 -1.0297692982 0.1058354881
C -2.3207180004 -2.3681454217 0.3161172162
C -0.9851384300 -2.8074202673 0.4203999756
C -4.1692589861 -0.6649372965 0.0118934187
C -0.6760766667 -4.2648369390 0.6443368751
H -3.1136511060 -3.1219793739 0.4052930219
H -4.8334941572 -1.5363316999 0.1506631244
H -4.4124835319 0.1029868238 0.7746880050
H -4.3761022980 -0.2073921506 -0.9777898343
H -1.5858043819 -4.8901416604 0.6786929440
H -0.0108647202 -4.6343407018 -0.1629110391
H -0.1188610540 -4.3857471675 1.5964541064
C 2.8095307867 1.6056050048 0.1772195712
C 1.8579283559 2.5065167771 -0.6242727197
H 3.8577728094 1.6793774864 -0.1801698378
H 2.8147429775 1.8895430374 1.2513259992
H 2.0213598900 3.5836130992 -0.4119813239
H 2.0055491706 2.3671193065 -1.7165738078
C 2.9747671951 -1.0616974112 1.4795128683
C 2.9326123571 -0.8861836384 -1.4219730328
C -0.4099349321 2.9643001931 1.2287714513
C -0.9408389335 2.6684092033 -1.6138742769
H 2.6779356603 -0.6055593711 2.4439478483
H 4.0798947987 -1.0610439218 1.3945308066
H 2.5959251225 -2.1021802249 1.4528931073
H 2.6067210228 -0.3241261751 -2.3189468761
H 2.5726142643 -1.9299183649 -1.5138261217
H 4.0400908438 -0.8808988018 -1.3689017171
H 0.2423390823 2.7155458078 2.0885755164
H -0.3633714522 4.0553088984 1.0367239282
H -1.4494440891 2.6796212188 1.4854709277
H -0.8816485222 3.7737532600 -1.6706035253
H -0.6215381784 2.2311268742 -2.5798597018
H -1.9852998614 2.3568728754 -1.4167254829
