94
1 2 Before single point calculation
Co 0.000000000 0.000000000 0.000000000
P 2.159432326 0.000000000 0.049528265
P 0.000000000 2.180000108 -0.050000003
O -1.880000077 0.000000000 0.050000003
O 0.000000000 -1.880000077 -0.050000003
C -2.749999990 -0.850000067 0.050000003
C -2.000000039 -2.000000039 0.000000000
C -0.850000067 -2.749999990 -0.050000003
C -4.199999930 -0.649999962 0.100000005
C -0.649999962 -4.199999930 -0.100000005
H -2.250000107 -2.250000107 1.049999982
H -4.650000102 -1.200000124 0.899999967
H -4.500000213 0.400000020 0.250000005
H -4.700000066 -1.000000019 -0.825000022
H -1.200000124 -4.650000102 -0.899999967
H 0.400000020 -4.500000213 -0.250000005
H -1.000000019 -4.700000066 0.825000022
C 2.050000002 1.710000025 0.620000035
C 1.190000106 2.539999994 1.520000065
C 0.540000018 3.540000013 0.579999963
H 3.020000094 2.130000145 0.930000020
H 1.600000081 1.630000009 -0.380000016
H 1.830000114 3.079999948 2.230000071
H 0.390000034 1.940000058 1.980000003
H 1.290000032 4.300000361 0.310000017
H -0.349999994 4.030000257 0.990000001
C 3.650000083 -0.800000041 0.850000067
C 4.849999955 0.050000003 1.250000087
C 5.950000153 -0.750000014 1.930000040
C 5.450000017 -1.899999986 2.810000097
C 4.249999893 -2.749999990 2.410000140
C 3.150000200 -1.950000076 1.730000061
H 3.950000114 -1.210000016 -0.129999996
H 5.199999697 0.699999988 0.430000011
H 4.550000176 0.720000024 2.069999911
H 6.800000535 -0.129999996 2.239999963
H 6.349999858 -1.159999927 1.140000017
H 6.249999931 -2.480000139 3.289999945
H 5.099999770 -1.479999993 3.770000045
H 3.900000151 -3.420000051 3.210000054
H 4.550000176 -3.380000232 1.560000136
H 2.300000070 -2.569999921 1.420000012
H 2.749999990 -1.250000087 2.480000139
C 2.950000095 -1.049999982 -1.350000013
C 4.400000287 -0.600000062 -1.650000044
C 4.849999955 -1.049999982 -3.050000021
C 4.000000077 -0.400000020 -4.150000219
C 2.549999885 -0.850000067 -3.849999936
C 2.099999965 -0.400000020 -2.450000211
H 2.950000095 -2.150000180 -1.250000087
H 4.500000213 0.500000010 -1.560000136
H 5.050000312 -1.019999992 -0.899999967
H 5.900000190 -0.699999988 -3.239999982
H 4.849999955 -2.150000180 -3.140000056
H 4.300000361 -0.730000042 -5.160000130
H 4.050000293 0.699999988 -4.079999968
H 1.950000076 -0.320000004 -4.630000319
H 2.450000211 -1.950000076 -3.930000078
H 1.049999982 -0.750000014 -2.250000107
H 2.099999965 0.699999988 -2.359999924
C -0.850000067 3.599999868 0.899999967
C -2.130000145 3.950000114 0.150000016
C -2.760000134 5.150000238 0.860000022
C -1.780000024 6.280000111 1.119999981
C -0.500000010 5.929999865 1.870000059
C 0.129999996 4.730000245 1.159999927
H -1.150000035 3.099999984 1.780000024
H -2.869999952 3.150000200 0.029999998
H -1.880000077 4.210000074 -0.890000012
H -3.670000119 5.510000376 0.360000012
H -3.059999913 4.820000280 1.870000059
H -2.250000107 7.150000277 1.600000081
H -1.479999993 6.630000358 0.120000009
H -0.730000042 5.699999833 2.930000059
H 0.219999999 6.750000067 1.780000024
H 1.039999965 4.389999890 1.679999972
H 0.439999997 5.050000312 0.150000016
C -1.150000035 2.900000132 -1.299999924
C -1.950000076 3.980000042 -2.050000002
C -3.369999835 3.499999941 -2.350000033
C -4.170000255 2.749999990 -1.280000015
C -3.369999835 1.669999954 -0.530000063
C -1.950000076 2.150000180 -0.230000016
H -0.320000004 3.180000127 -1.980000003
H -1.420000012 4.420000070 -2.900000132
H -2.000000039 4.800000496 -1.320000086
H -3.930000078 4.340000432 -2.790000061
H -3.350000052 2.849999916 -3.239999982
H -5.190000310 2.400000248 -1.529999956
H -4.280000073 3.390000124 -0.390000034
H -3.339999908 1.019999992 -1.420000012
H -3.900000151 1.169999944 0.289999982
H -1.380000067 1.299999924 0.179999990
H -1.980000003 2.770000026 0.680000016
94
step=1 E=-3465.231016138421 Eh
Co 0.0000000000 0.0000000000 0.0000000000
P 2.1594320928 0.0000000000 0.0495282617
P 0.0000000000 2.1799999992 -0.0500000020
O -1.8800000031 0.0000000000 0.0500000020
O 0.0000000000 -1.8800000031 -0.0500000020
C -2.7500000039 -0.8500000022 0.0500000020
C -2.0000000005 -2.0000000005 0.0000000000
C -0.8500000022 -2.7500000039 -0.0500000020
C -4.2000000036 -0.6499999995 0.0999999987
C -0.6499999995 -4.2000000036 -0.0999999987
H -2.2499999999 -2.2499999999 1.0499999996
H -4.6500000004 -1.2000000003 0.8999999989
H -4.4999999997 0.4000000001 0.2499999994
H -4.7000000024 -1.0000000029 -0.8249999985
H -1.2000000003 -4.6500000004 -0.8999999989
H 0.4000000001 -4.4999999997 -0.2499999994
H -1.0000000029 -4.7000000024 0.8249999985
C 2.0500000025 1.7099999984 0.6200000015
C 1.1900000009 2.5400000019 1.5200000003
C 0.5400000014 3.5399999995 0.5799999988
H 3.0200000020 2.1300000025 0.9300000022
H 1.6000000004 1.6299999984 -0.3800000014
H 1.8300000011 3.0800000034 2.2300000012
H 0.3900000008 1.9399999991 1.9800000018
H 1.2899999996 4.3000000023 0.3100000007
H -0.3499999981 4.0300000042 0.9899999982
C 3.6500000028 -0.8000000002 0.8500000022
C 4.8500000031 0.0500000020 1.2500000023
C 5.9500000047 -0.7499999982 1.9299999998
C 5.4500000006 -1.9000000018 2.8100000000
C 4.2500000003 -2.7500000039 2.4099999999
C 3.1500000040 -1.9499999985 1.7300000024
H 3.9500000042 -1.2099999996 -0.1300000020
H 5.2000000012 0.7000000015 0.4299999981
H 4.5500000017 0.7200000002 2.0700000011
H 6.8000000016 -0.1300000020 2.2400000005
H 6.3500000048 -1.1600000029 1.1399999989
H 6.2500000008 -2.4800000006 3.2900000001
H 5.1000000025 -1.4800000030 3.7700000002
H 3.9000000022 -3.4200000021 3.2100000001
H 4.5500000017 -3.3799999995 1.5600000030
H 2.3000000019 -2.5699999999 1.4200000016
H 2.7500000039 -1.2500000023 2.4800000006
C 2.9500000013 -1.0499999996 -1.3500000010
C 4.4000000010 -0.6000000028 -1.6500000024
C 4.8500000031 -1.0499999996 -3.0500000000
C 4.0000000009 -0.4000000001 -4.1500000016
C 2.5500000012 -0.8500000022 -3.8500000002
C 2.0999999992 -0.4000000001 -2.4500000025
H 2.9500000013 -2.1500000012 -1.2500000023
H 4.4999999997 0.4999999988 -1.5600000030
H 5.0500000005 -1.0200000016 -0.8999999989
H 5.9000000027 -0.7000000015 -3.2400000034
H 4.8500000031 -2.1500000012 -3.1399999994
H 4.3000000023 -0.7299999995 -5.1600000038
H 4.0500000029 0.7000000015 -4.0800000009
H 1.9499999985 -0.3200000001 -4.6300000017
H 2.4500000025 -1.9499999985 -3.9300000002
H 1.0499999996 -0.7499999982 -2.2499999999
H 2.0999999992 0.7000000015 -2.3600000032
C -0.8500000022 3.6000000008 0.8999999989
C -2.1300000025 3.9500000042 0.1500000007
C -2.7600000033 5.1500000045 0.8600000015
C -1.7799999991 6.2800000041 1.1200000003
C -0.4999999988 5.9300000007 1.8699999984
C 0.1300000020 4.7300000004 1.1600000029
H -1.1499999983 3.1000000020 1.7799999991
H -2.8700000013 3.1500000040 0.0299999980
H -1.8800000031 4.2100000030 -0.8899999995
H -3.6700000015 5.5100000019 0.3600000027
H -3.0599999994 4.8199999998 1.8699999984
H -2.2499999999 7.1500000050 1.6000000004
H -1.4800000030 6.6300000022 0.1200000027
H -0.7299999995 5.7000000053 2.9300000027
H 0.2200000014 6.7500000049 1.7799999991
H 1.0400000002 4.3900000017 1.6800000004
H 0.4400000027 5.0500000005 0.1500000007
C -1.1499999983 2.8999999993 -1.2999999990
C -1.9499999985 3.9800000022 -2.0500000025
C -3.3700000001 3.5000000021 -2.3499999986
C -4.1700000003 2.7500000039 -1.2800000003
C -3.3700000001 1.6700000010 -0.5300000021
C -1.9499999985 2.1500000012 -0.2300000007
H -0.3200000001 3.1800000021 -1.9800000018
H -1.4200000016 4.4199999997 -2.8999999993
H -2.0000000005 4.8000000011 -1.3200000029
H -3.9300000002 4.3399999997 -2.7900000013
H -3.3500000014 2.8500000026 -3.2400000034
H -5.1900000019 2.4000000006 -1.5299999997
H -4.2800000036 3.3900000041 -0.3900000008
H -3.3400000021 1.0200000016 -1.4200000016
H -3.9000000022 1.1700000023 0.2900000021
H -1.3799999990 1.2999999990 0.1799999987
H -1.9800000018 2.7700000026 0.6800000028
