68
1 2 Before single point calculation
Co 0.000000000 0.000000000 0.000000000
P 2.159432326 0.000000000 0.049528265
P 0.000000000 2.180000108 -0.050000003
O -1.880000077 0.000000000 0.050000003
O 0.000000000 -1.880000077 -0.050000003
C -2.749999990 -0.850000067 0.050000003
C -2.000000039 -2.000000039 0.000000000
C -0.850000067 -2.749999990 -0.050000003
C -4.199999930 -0.649999962 0.100000005
C -0.649999962 -4.199999930 -0.100000005
H -2.250000107 -2.250000107 1.049999982
H -4.650000102 -1.200000124 0.899999967
H -4.500000213 0.400000020 0.250000005
H -4.700000066 -1.000000019 -0.825000022
H -1.200000124 -4.650000102 -0.899999967
H 0.400000020 -4.500000213 -0.250000005
H -1.000000019 -4.700000066 0.825000022
C 2.050000002 1.710000025 0.620000035
C 1.190000106 2.539999994 1.520000065
C 0.540000018 3.540000013 0.579999963
H 3.020000094 2.130000145 0.930000020
H 1.600000081 1.630000009 -0.380000016
H 1.830000114 3.079999948 2.230000071
H 0.390000034 1.940000058 1.980000003
H 1.290000032 4.300000361 0.310000017
H -0.349999994 4.030000257 0.990000001
C 3.619999903 -0.850000067 0.850000067
C 4.920000206 -1.039999965 0.060000005
H 3.849999936 -0.430000011 1.840000131
H 3.300000089 -1.899999986 1.019999992
H 5.720000121 -1.590000064 0.579999963
H 5.269999948 -0.060000005 -0.300000031
H 4.760000425 -1.610000099 -0.860000022
C 2.900000132 -1.100000072 -1.299999924
C 4.249999893 -0.699999988 -1.930000040
H 3.020000094 -2.189999999 -1.169999944
H 2.140000036 -0.890000012 -2.069999911
H 4.760000425 -1.490000011 -2.490000030
H 4.930000098 -0.380000016 -1.129999999
H 4.120000039 0.160000002 -2.599999848
C -0.850000067 3.599999868 0.899999967
C -2.150000180 3.820000008 1.350000013
C -2.900000132 4.920000206 0.930000020
C -2.350000033 5.829999938 0.020000000
C -1.049999982 5.620000194 -0.430000011
C -0.300000031 4.519999996 -0.010000000
H -2.580000065 3.109999876 2.060000020
H -3.920000187 5.090000383 1.290000032
H -0.620000035 6.330000074 -1.140000017
H 0.720000024 4.349999819 -0.369999998
C -3.150000200 7.020000171 -0.419999993
H -4.190000038 6.719999888 -0.629999989
H -2.740000098 7.450000056 -1.350000013
H -3.150000200 7.800000302 0.349999994
C -1.049999982 2.900000132 -1.350000013
C -1.100000072 3.499999941 -2.619999884
C -2.150000180 3.380000232 -3.540000013
C -3.150000200 2.619999884 -3.190000019
C -3.099999984 2.020000074 -1.920000022
C -2.050000002 2.140000036 -1.000000019
H -0.330000022 4.100000003 -2.910000023
H -2.189999999 3.849999936 -4.530000393
H -3.869999971 1.430000030 -1.630000009
H -2.010000056 1.669999954 -0.010000000
C -4.280000073 2.500000174 -4.179999894
H -5.160000130 1.880000077 -3.960000006
H -3.950000114 2.270000142 -5.199999697
H -4.600000139 3.549999905 -4.130000183
68
step=1 E=-3225.652792079427 Eh
Co 0.0000000000 0.0000000000 0.0000000000
P 2.1594320928 0.0000000000 0.0495282617
P 0.0000000000 2.1799999992 -0.0500000020
O -1.8800000031 0.0000000000 0.0500000020
O 0.0000000000 -1.8800000031 -0.0500000020
C -2.7500000039 -0.8500000022 0.0500000020
C -2.0000000005 -2.0000000005 0.0000000000
C -0.8500000022 -2.7500000039 -0.0500000020
C -4.2000000036 -0.6499999995 0.0999999987
C -0.6499999995 -4.2000000036 -0.0999999987
H -2.2499999999 -2.2499999999 1.0499999996
H -4.6500000004 -1.2000000003 0.8999999989
H -4.4999999997 0.4000000001 0.2499999994
H -4.7000000024 -1.0000000029 -0.8249999985
H -1.2000000003 -4.6500000004 -0.8999999989
H 0.4000000001 -4.4999999997 -0.2499999994
H -1.0000000029 -4.7000000024 0.8249999985
C 2.0500000025 1.7099999984 0.6200000015
C 1.1900000009 2.5400000019 1.5200000003
C 0.5400000014 3.5399999995 0.5799999988
H 3.0200000020 2.1300000025 0.9300000022
H 1.6000000004 1.6299999984 -0.3800000014
H 1.8300000011 3.0800000034 2.2300000012
H 0.3900000008 1.9399999991 1.9800000018
H 1.2899999996 4.3000000023 0.3100000007
H -0.3499999981 4.0300000042 0.9899999982
C 3.6199999995 -0.8500000022 0.8500000022
C 4.9200000038 -1.0400000002 0.0600000013
H 3.8500000002 -0.4299999981 1.8400000004
H 3.2999999994 -1.9000000018 1.0200000016
H 5.7200000040 -1.5900000010 0.5799999988
H 5.2700000019 -0.0600000013 -0.3000000014
H 4.7600000037 -1.6099999997 -0.8600000015
C 2.8999999993 -1.1000000016 -1.2999999990
C 4.2500000003 -0.7000000015 -1.9299999998
H 3.0200000020 -2.1899999985 -1.1700000023
H 2.1400000018 -0.8899999995 -2.0700000011
H 4.7600000037 -1.4900000023 -2.4899999999
H 4.9300000031 -0.3800000014 -1.1299999996
H 4.1200000036 0.1600000000 -2.6000000032
C -0.8500000022 3.6000000008 0.8999999989
C -2.1500000012 3.8200000022 1.3500000010
C -2.8999999993 4.9200000038 0.9300000022
C -2.3499999986 5.8300000020 0.0199999987
C -1.0499999996 5.6200000053 -0.4299999981
C -0.3000000014 4.5200000037 -0.0099999993
H -2.5799999993 3.1100000014 2.0600000018
H -3.9200000009 5.0900000032 1.2899999996
H -0.6200000015 6.3300000008 -1.1399999989
H 0.7200000002 4.3500000043 -0.3700000021
C -3.1500000040 7.0200000029 -0.4199999988
H -4.1900000043 6.7200000015 -0.6300000008
H -2.7399999993 7.4500000011 -1.3500000010
H -3.1500000040 7.8000000044 0.3499999981
C -1.0499999996 2.8999999993 -1.3500000010
C -1.1000000016 3.5000000021 -2.6200000019
C -2.1500000012 3.3799999995 -3.5399999995
C -3.1500000040 2.6200000019 -3.1900000014
C -3.1000000020 2.0199999991 -1.9200000004
C -2.0500000025 2.1400000018 -1.0000000029
H -0.3299999994 4.0999999996 -2.9100000040
H -2.1899999985 3.8500000002 -4.5300000030
H -3.8700000042 1.4300000010 -1.6299999984
H -2.0099999998 1.6700000010 -0.0099999993
C -4.2800000036 2.4999999993 -4.1799999996
H -5.1600000038 1.8800000031 -3.9600000036
H -3.9500000042 2.2699999985 -5.2000000012
H -4.6000000037 3.5500000041 -4.1300000029
