39
1 2 Before single point calculation
Co 0.000000000 0.000000000 0.000000000
P 2.140000036 0.000000000 0.000000000
P 0.000000000 2.150000180 0.000000000
O -1.850000023 0.000000000 0.050000003
O 0.000000000 -1.850000023 -0.050000003
C -2.799999953 -0.850000067 0.050000003
C -2.000000039 -2.000000039 0.000000000
C -0.850000067 -2.799999953 -0.050000003
C -4.249999893 -0.649999962 0.100000005
C -0.649999962 -4.249999893 -0.100000005
H -2.250000107 -2.250000107 1.049999982
H -4.650000102 -1.200000124 0.949999993
H -4.550000176 0.400000020 0.200000010
H -4.750000029 -1.049999982 -0.800000041
H -1.200000124 -4.650000102 -0.949999993
H 0.400000020 -4.550000176 -0.200000010
H -1.049999982 -4.750000029 0.800000041
C 2.050000002 1.549999992 0.949999993
C 1.799999934 2.250000107 -0.349999994
H 2.950000095 2.099999965 1.250000087
H 1.200000124 1.479999993 1.650000044
H 2.350000033 3.150000200 -0.050000003
H 1.850000023 2.150000180 -1.450000066
C 3.650000083 -0.800000041 0.750000014
C 2.950000095 -1.100000072 -1.250000087
C -0.800000041 3.650000083 0.750000014
C -1.100000072 2.950000095 -1.250000087
H 4.400000287 -0.050000003 1.049999982
H 4.150000219 -1.549999992 0.150000016
H 3.300000089 -1.299999924 1.650000044
H 3.599999868 -1.950000076 -1.500000029
H 3.300000089 -0.250000005 -1.850000023
H 2.099999965 -1.500000029 -1.799999934
H -0.050000003 4.400000287 1.049999982
H -1.549999992 4.150000219 0.150000016
H -1.299999924 3.300000089 1.650000044
H -1.950000076 3.599999868 -1.500000029
H -0.250000005 3.300000089 -1.850000023
H -1.500000029 2.099999965 -1.799999934
39
step=1 E=-2646.147857843291 Eh
Co 0.0000000000 0.0000000000 0.0000000000
P 2.1400000018 0.0000000000 0.0000000000
P 0.0000000000 2.1500000012 0.0000000000
O -1.8499999998 0.0000000000 0.0500000020
O 0.0000000000 -1.8499999998 -0.0500000020
C -2.8000000006 -0.8500000022 0.0500000020
C -2.0000000005 -2.0000000005 0.0000000000
C -0.8500000022 -2.8000000006 -0.0500000020
C -4.2500000003 -0.6499999995 0.0999999987
C -0.6499999995 -4.2500000003 -0.0999999987
H -2.2499999999 -2.2499999999 1.0499999996
H -4.6500000004 -1.2000000003 0.9500000009
H -4.5500000017 0.4000000001 0.2000000027
H -4.7500000044 -1.0499999996 -0.8000000002
H -1.2000000003 -4.6500000004 -0.9500000009
H 0.4000000001 -4.5500000017 -0.2000000027
H -1.0499999996 -4.7500000044 0.8000000002
C 2.0500000025 1.5499999984 0.9500000009
C 1.8000000031 2.2499999999 -0.3499999981
H 2.9500000013 2.0999999992 1.2500000023
H 1.2000000003 1.4800000030 1.6500000024
H 2.3499999986 3.1500000040 -0.0500000020
H 1.8499999998 2.1500000012 -1.4499999997
C 3.6500000028 -0.8000000002 0.7499999982
C 2.9500000013 -1.1000000016 -1.2500000023
C -0.8000000002 3.6500000028 0.7499999982
C -1.1000000016 2.9500000013 -1.2500000023
H 4.4000000010 -0.0500000020 1.0499999996
H 4.1500000016 -1.5499999984 0.1500000007
H 3.2999999994 -1.2999999990 1.6500000024
H 3.6000000008 -1.9499999985 -1.5000000017
H 3.2999999994 -0.2499999994 -1.8499999998
H 2.0999999992 -1.5000000017 -1.8000000031
H -0.0500000020 4.4000000010 1.0499999996
H -1.5499999984 4.1500000016 0.1500000007
H -1.2999999990 3.2999999994 1.6500000024
H -1.9499999985 3.6000000008 -1.5000000017
H -0.2499999994 3.2999999994 -1.8499999998
H -1.5000000017 2.0999999992 -1.8000000031
39
step=2 E=-2646.296413978448 Eh
Co -0.0103502682 -0.0104656026 0.0029417311
P 2.1418915923 0.0323621498 0.0037154573
P 0.0289493000 2.1618070453 0.0095290076
O -1.8804899658 0.0045226135 0.0449772418
O 0.0054416818 -1.8760874337 -0.0523591281
C -2.8155167717 -0.8843633119 0.0419783872
C -2.0944480207 -2.0961668948 -0.0033719125
C -0.8822898166 -2.8127718391 -0.0544865061
C -4.2631113651 -0.6482367492 0.0890323989
C -0.6422166614 -4.2595337396 -0.1098629982
H -2.3466871953 -2.3894266016 1.0511291983
H -4.6859758393 -1.1886702192 0.9433688298
H -4.5293358031 0.4140926707 0.1861618660
H -4.7667680382 -1.0393620736 -0.8147540686
H -1.1822853019 -4.6757118876 -0.9669611835
H 0.4209208659 -4.5219381906 -0.2084877240
H -1.0307055485 -4.7731390949 0.7901689406
C 2.1502029182 1.5812805920 0.9697402142
C 1.8316733734 2.3327461426 -0.3395930175
H 3.0616995746 2.1199934622 1.2692679951
H 1.3196417432 1.4783523056 1.6890684987
H 2.3684637843 3.2570523562 -0.0681898601
H 1.8544198770 2.2205645033 -1.4393645536
C 3.6533473193 -0.7531287101 0.8346904160
C 2.8565391909 -1.0819352773 -1.3321051508
C -0.7693526967 3.6651724017 0.8265455898
C -1.0628297333 2.8746623306 -1.3346202348
H 4.3923065196 0.0179538497 1.1209822257
H 4.1767102882 -1.5268324737 0.2858901713
H 3.2924471793 -1.2213690819 1.7590629354
H 3.4801625823 -1.9580948412 -1.5640608609
H 3.2294242032 -0.2967799546 -2.0161907771
H 1.9600726766 -1.4591477999 -1.8486216110
H -0.0087747422 4.4064762235 1.1340001490
H -1.5305369783 4.1879724817 0.2623580426
H -1.2550677481 3.2969249932 1.7373766846
H -1.9346633798 3.4981850439 -1.5787612665
H -0.2520606609 3.2545223400 -1.9814176112
H -1.4388240172 1.9996311973 -1.8890535176
39
step=3 E=-2646.493349959321 Eh
Co -0.0082530301 -0.0128497570 0.0232394725
P 2.1622710744 0.0337831632 0.0033053698
P 0.0313610260 2.1925731102 0.0156879044
O -1.8933703768 0.0377478036 0.0569413562
O 0.0195749395 -1.8862070803 -0.0461244416
C -2.7731150670 -0.9158104408 0.0585498911
C -2.2815890903 -2.2611778931 0.0412044081
C -0.9437075737 -2.7576475169 -0.0432215307
C -4.2105828971 -0.5874478750 0.0938637729
C -0.6250693443 -4.1954941368 -0.1373399787
H -2.5841581001 -2.7133256109 1.0450550165
H -4.6896383711 -1.0873256048 0.9587184104
H -4.3851167580 0.4997768810 0.1712677748
H -4.7236103998 -0.9651054686 -0.8137631858
H -1.1584707549 -4.6320741406 -1.0025387616
H 0.4582503854 -4.3709307058 -0.2559189481
H -0.9709954873 -4.7493488806 0.7608283673
C 2.2781226269 1.6290869493 0.9394576887
C 1.8302687583 2.4916223774 -0.3381446640
H 3.2017100535 2.1495950384 1.2456106864
H 1.4637939307 1.4751553017 1.6699195425
H 2.2979792136 3.4755532323 -0.1206166887
H 1.8385088749 2.3366016637 -1.4335318350
C 3.6273825276 -0.7864211614 0.9193051419
C 2.8284740406 -1.0517932318 -1.3985344342
C -0.7829737687 3.6482003017 0.9197354355
C -1.0326697734 2.7604172568 -1.4319167851
H 4.3764624419 -0.0173818686 1.1945761334
H 4.1228291375 -1.5952454498 0.3647478635
H 3.2598184012 -1.2294725968 1.8700476689
H 3.4674152220 -1.9503733845 -1.4518322896
H 3.2508626221 -0.4191036698 -2.2202014614
H 1.8983773367 -1.4162923504 -1.8942634773
H -0.0346040452 4.4064954828 1.2283527510
H -1.5677041646 4.1306571016 0.3266893129
H -1.2512231783 3.2674185200 1.8495208996
H -1.9540268163 3.3535374605 -1.5554335787
H -0.3331308788 3.2010498669 -2.1809693809
H -1.3611069143 1.8472242745 -1.9863581123
39
step=4 E=-2646.622309446988 Eh
Co -0.0006393343 -0.0287697345 0.0763081982
P 2.2062071468 0.0351053672 -0.0175796148
P 0.0338100782 2.2251833820 0.0000574433
O -1.8870810496 0.0183014675 0.1000082612
O 0.0050059420 -1.9019505652 -0.0097834012
C -2.6773682947 -1.0014454390 0.1359030144
C -2.4569837059 -2.4261099954 0.1696758564
C -1.0397419377 -2.6635728836 0.0255419914
C -4.1138537114 -0.5897951712 0.1139462449
C -0.6622913276 -4.0977693567 -0.1748390589
H -2.8964593404 -3.1574440378 0.8909147092
H -4.6522679368 -1.0338108077 0.9803065681
H -4.2186820756 0.5106251902 0.1447805596
H -4.6135116701 -0.9817985267 -0.7952160886
H -1.2155763432 -4.5152117217 -1.0412102553
H 0.4250946572 -4.2051814893 -0.3433101544
H -0.9521854734 -4.7113039618 0.7053365005
C 2.4851106194 1.6991190047 0.7989249949
C 1.8273808747 2.6128898103 -0.3636199842
H 3.4469622374 2.1751485043 1.0588412978
H 1.7312699704 1.5152729825 1.5880946301
H 2.1956555541 3.6506506665 -0.2152503113
H 1.8307832206 2.3702814808 -1.4426518507
C 3.5258400375 -0.8019524920 1.1176666871
C 2.7545264201 -0.9176246766 -1.5513269007
C -0.7732218264 3.6023966960 1.0124409921
C -0.9498427420 2.6169824147 -1.5431469237
H 4.2820904192 -0.0324162947 1.3644202241
H 4.0045948355 -1.6811042290 0.6627806545
H 3.0922499410 -1.1417575829 2.0877922936
H 3.4118060958 -1.7991044541 -1.4865210167
H 3.1383565400 -0.3103293275 -2.4126318874
H 1.7659117310 -1.2449859306 -1.9549908220
H -0.0234915059 4.3640523184 1.3059106754
H -1.5823535418 4.0538647620 0.4188797028
H -1.2049113111 3.2031483517 1.9562637548
H -1.8930627899 3.1906151688 -1.5520657888
H -0.2688236543 3.0730017902 -2.3043773097
H -1.2145983857 1.6574692949 -2.0549759952
39
step=5 E=-2646.695593297782 Eh
Co 0.0233657516 -0.0228138700 0.0833790893
P 2.2446081359 -0.0170526920 -0.0364303029
P 0.0047601092 2.2471873676 -0.0283357342
O -1.8644514730 0.0590921958 0.1183158181
O 0.0701046511 -1.8976809302 -0.0223063049
C -2.6895951106 -0.9248907664 0.1478569845
C -2.3286305149 -2.3065482596 0.1166247361
C -0.9445129502 -2.6891735150 0.0138290571
C -4.1617338089 -0.5545493300 0.1554606314
C -0.6088813258 -4.1672251391 -0.1111343951
H -2.8715400479 -2.9430227864 0.8280254768
H -4.6828547424 -1.0455530611 1.0068744471
H -4.3006072249 0.5403022953 0.2254781515
H -4.6555145785 -0.9325788835 -0.7631254354
H -1.1498732797 -4.6149320043 -0.9705045498
H 0.4788315141 -4.3173444268 -0.2381434514
H -0.9457855925 -4.7253112930 0.7892717671
C 2.5821906938 1.7276505788 0.6233288515
C 1.7980955153 2.6971680301 -0.3793969271
H 3.5913335899 2.1123101830 0.8489421765
H 1.8985653052 1.5369178307 1.4746919670
H 2.0182883864 3.7820129154 -0.2972623378
H 1.8492995509 2.4102232257 -1.4468865439
C 3.3179675974 -0.9367825778 1.2597165488
C 2.7561977835 -0.7466278137 -1.6806543260
C -0.7825748043 3.5166891198 1.1112516792
C -0.8815317190 2.5390178973 -1.6445723560
H 4.1183103070 -0.2357235082 1.5582718372
H 3.7458049006 -1.8713208566 0.8536907487
H 2.7562250870 -1.2010293759 2.1834485614
H 3.4658419710 -1.5819163293 -1.5611921266
H 3.1486682184 -0.0136918875 -2.4268780309
H 1.8465813265 -1.0986850221 -2.2153693223
H -0.0338736783 4.2752465336 1.4123927000
H -1.6201560396 3.9792070543 0.5616268735
H -1.1668900203 3.0557451754 2.0456121955
H -1.8344377294 3.0905209333 -1.5587728099
H -0.2462644976 3.0364195219 -2.4152635140
H -1.1013615965 1.5700156849 -2.1500596168
39
step=6 E=-2646.721525843777 Eh
Co -0.0156493078 -0.0174727130 0.1143964926
P 2.2283850827 0.0470262859 0.0488292428
P -0.0120586019 2.2566313726 -0.1373542593
O -1.9170863830 0.0318168145 0.1475458930
O 0.0860289069 -1.9063980223 0.0221150683
C -2.7199559409 -0.9808085727 0.1722716978
C -2.2680875925 -2.3275513306 0.1474712948
C -0.9007242438 -2.7416426913 0.0822581849
C -4.2111694448 -0.6709998406 0.1650952541
C -0.5523869157 -4.2237023435 0.0008726089
H -2.9223481855 -3.1713892630 0.4202271697
H -4.7313111209 -1.1864597675 1.0033059435
H -4.3787583473 0.4191840971 0.2443631293
H -4.6661390542 -1.0541700741 -0.7718099105
H -1.0681456012 -4.6989271486 -0.8613251491
H 0.5415870390 -4.3522477120 -0.0955064206
H -0.9015766919 -4.7548930337 0.9130120193
C 2.7361782015 1.8455207489 0.3697805416
C 1.7867324417 2.7167536048 -0.4709354587
H 3.8256621734 2.0290164339 0.4283697553
H 2.3152964597 1.9226519159 1.3966178943
H 2.0801568954 3.7844134005 -0.3779748574
H 1.9567743135 2.4166875170 -1.5250495351
C 2.9819193022 -1.0518206326 1.3454395213
C 2.6982035941 -0.3598597669 -1.6893488515
C -0.6398231270 3.3909147646 1.2009917915
C -0.8179167348 2.5391739248 -1.8022084581
H 3.8672761418 -0.5348124480 1.7669328087
H 3.2872567913 -2.0239418939 0.9008196830
H 2.2496661792 -1.2393023345 2.1577511372
H 3.3596787872 -1.2489760359 -1.6381069491
H 3.1137650039 0.3819180268 -2.4060260676
H 1.6200535565 -0.5950533469 -1.8195402881
H 0.1611525023 4.0985341422 1.4973714343
H -1.5153694308 3.9543341019 0.8265350908
H -0.9394865511 2.8089079506 2.0970003037
H -1.7483208246 3.1181664429 -1.6470826888
H -0.0975558885 3.1282977685 -2.4101479435
H -1.0354329556 1.5741778120 -2.3125054324
39
step=7 E=-2646.652019152064 Eh
Co -0.0628081478 -0.0252614334 0.1271356599
P 2.1836004458 0.0530387616 0.0576984995
P -0.0078646906 2.2337788523 -0.2031051775
O -1.9688783682 0.0256582966 0.1848860341
O 0.0384025222 -1.9223638465 0.0484003907
C -2.7552897598 -1.0078479471 0.2289151984
C -2.3146013838 -2.3526744331 0.2215210576
C -0.9563649240 -2.7544523106 0.1391451470
C -4.2386360892 -0.7023198314 0.2180070526
C -0.6094801858 -4.2267967728 0.0647348118
H -2.9956597839 -3.2247727137 0.3004795883
H -4.7590357750 -1.2060833526 1.0612763365
H -4.3970524009 0.3893764035 0.2853780495
H -4.6873618719 -1.0925538705 -0.7188317170
H -1.1348157494 -4.7067628262 -0.7883501326
H 0.4840545236 -4.3451603870 -0.0456229644
H -0.9429792350 -4.7466945029 0.9882604101
C 2.7403135822 1.8395025014 0.2495689490
C 1.7857695925 2.6860904240 -0.5470719885
H 3.8444426894 1.9364417858 0.2629280307
H 2.4462256386 2.0517346413 1.3054415384
H 2.1270985439 3.7395817166 -0.4617355922
H 1.9714032779 2.3757959805 -1.5994222876
C 2.8290820347 -1.0775172907 1.3255478587
C 2.6855182027 -0.2651937654 -1.6869308186
C -0.5384593150 3.3136960941 1.2012879218
C -0.8091038484 2.5438199856 -1.8648399239
H 3.7397817059 -0.6456692420 1.7938843858
H 3.0869106324 -2.0566890127 0.8644448315
H 2.0340893975 -1.2140082714 2.0820856109
H 3.5745794207 -0.9372407248 -1.6646932475
H 2.9033354682 0.7327031880 -1.2620362908
H 2.3535288803 -0.4415322483 -2.7293651034
H 0.2946044037 3.9896956370 1.4846019659
H -1.4156644768 3.9315772742 0.9268567867
H -0.8074080185 2.6768985741 2.0668010628
H -1.7439692180 3.1107864559 -1.6818415410
H -0.1431759976 3.1391241383 -2.5194433236
H -0.9950095337 1.5012291604 -2.1959964416
39
step=8 E=-2646.719542235805 Eh
Co -0.0565924805 -0.0152724619 0.1453103609
P 2.1786784497 0.0410138538 0.1053199146
P -0.0214817810 2.2275352512 -0.1852981310
O -1.9592562645 0.0449598418 0.1782749226
O 0.0529569740 -1.9082374065 0.0808322497
C -2.7424568479 -0.9881456598 0.2184398020
C -2.3003219861 -2.3241712308 0.2244019093
C -0.9509106031 -2.7259599846 0.1632517161
C -4.2186993916 -0.6877715832 0.1879782186
C -0.6110117107 -4.1919889692 0.1054276787
H -3.0293331392 -3.1543117277 0.2969001387
H -4.7439075416 -1.1877685827 1.0268052097
H -4.3817874017 0.4027767561 0.2472450090
H -4.6578097772 -1.0825080918 -0.7509659596
H -1.1250200806 -4.6742600568 -0.7501925238
H 0.4821586750 -4.3182491890 0.0105808898
H -0.9591323023 -4.7031201961 1.0269373187
C 2.6871369927 1.8279933446 0.3304398387
C 1.7658480650 2.6931358684 -0.5014164414
H 3.7880159461 1.9536482362 0.3574063474
H 2.3751732199 2.0271969002 1.3864450843
H 2.0709074480 3.7556745088 -0.4089713052
H 1.9656347512 2.4019357152 -1.5599031374
C 2.8650043766 -1.0807561679 1.3527255636
C 2.7583241519 -0.3504111924 -1.6266738110
C -0.5881068960 3.3019272446 1.1987594981
C -0.8241468265 2.5686687013 -1.8331748447
H 3.7706044115 -0.6423646609 1.8236429209
H 3.1391529109 -2.0460635650 0.8801327691
H 2.0774833122 -1.2403238908 2.1085220006
H 3.6033463210 -1.0173820931 -1.9220971172
H 3.2263194091 0.6025242765 -1.9105088799
H 2.2712657971 -0.5956197241 -2.5877285725
H 0.2297233739 3.9881485959 1.4958914392
H -1.4673131177 3.9103840007 0.9088819633
H -0.8657745320 2.6604487470 2.0546215933
H -1.7664662387 3.1256755637 -1.6604784324
H -0.1836719070 3.1754790585 -2.4976523216
H -1.0155458505 1.5441374383 -2.1976663976
39
step=9 E=-2646.736528911374 Eh
Co -0.0378722309 -0.0242557394 0.1186027630
P 2.1835795844 0.0245507444 0.0833002398
P -0.0353235185 2.2077555909 -0.1904482319
O -1.9379507116 0.0510808463 0.1468774285
O 0.0851655097 -1.9134548322 0.0736535471
C -2.7296222648 -0.9715503766 0.1901479798
C -2.2714068601 -2.3039445662 0.2043008237
C -0.9218592856 -2.7237352300 0.1545929358
C -4.2112416414 -0.6720830845 0.1665450181
C -0.5865877516 -4.1977347395 0.1229036156
H -3.0378593437 -3.0870756427 0.2968298198
H -4.7313363247 -1.1707826198 1.0102847683
H -4.3821196222 0.4180550119 0.2225231417
H -4.6611339528 -1.0684957835 -0.7671214875
H -1.0943005186 -4.6943408559 -0.7290054509
H 0.5059029538 -4.3383263478 0.0377658960
H -0.9443259316 -4.6966154302 1.0476470832
C 2.6720786597 1.7990172989 0.3640424674
C 1.7445868225 2.7057885750 -0.4915700818
H 3.7656225814 1.9850250278 0.3667110801
H 2.3658726826 1.9301219544 1.4311087479
H 1.9652997318 3.7896910309 -0.3953639499
H 1.9356128270 2.4525332809 -1.5605602376
C 2.9866031548 -1.0804498892 1.3206778895
C 2.7666182865 -0.4354979109 -1.6104928231
C -0.6301655151 3.2804273597 1.1995238200
C -0.8724379945 2.5744980559 -1.8180347018
H 3.8929553979 -0.6080827758 1.7504961585
H 3.2752492153 -2.0341627643 0.8407545748
H 2.2563320419 -1.2840636127 2.1263835861
H 3.6087701088 -1.1397568771 -1.8273971443
H 3.2470159662 0.4747363369 -2.0380989805
H 1.9647602355 -0.6926295981 -2.3378525564
H 0.1715754618 3.9801589318 1.5066905411
H -1.5173824315 3.8711892934 0.9003527206
H -0.9060985511 2.6412768066 2.0598340174
H -1.7736148705 3.1854636533 -1.6215674516
H -0.0663390091 3.2135043271 -2.2252519555
H -1.2074108134 1.8677518673 -2.6007862444
39
step=10 E=-2646.740454220222 Eh
Co -0.0151063405 -0.0160119734 0.0942543603
P 2.1928086967 0.0169574418 0.0713651979
P -0.0180447625 2.2023247067 -0.1834615559
O -1.9108544831 0.0818332796 0.1150814303
O 0.1012940718 -1.9039044499 0.0510307521
C -2.7097521113 -0.9332658989 0.1514457055
C -2.2628415697 -2.2716948690 0.1653739986
C -0.9146128682 -2.7025401022 0.1215367506
C -4.1910945712 -0.6205261125 0.1299575349
C -0.5885929542 -4.1821081766 0.0969275801
H -3.0451403577 -3.0306727094 0.2560136219
H -4.7139784910 -1.1184746922 0.9726184384
H -4.3576986577 0.4703689366 0.1898693399
H -4.6506851820 -1.0068785717 -0.8035709506
H -1.0918321089 -4.6799674969 -0.7571928689
H 0.5026290686 -4.3368275194 0.0190841353
H -0.9564730114 -4.6786727424 1.0188702074
C 2.6760266037 1.7717732207 0.4082809005
C 1.7598087643 2.7083732646 -0.4641855225
H 3.7618663494 2.0027545694 0.3937868880
H 2.3770880252 1.8596707793 1.4802793664
H 1.9439069013 3.7973625585 -0.3472859858
H 1.9491276153 2.4921306222 -1.5405819821
C 3.0726776579 -1.0771537821 1.2962975657
C 2.7813146384 -0.4684063119 -1.5930701687
C -0.6399789947 3.2692821280 1.2081223808
C -0.8764145692 2.6335346085 -1.7800696325
H 3.9783804627 -0.5866144111 1.7023284805
H 3.3687668289 -2.0197265230 0.8060433178
H 2.3847533103 -1.3136882908 2.1327408066
H 3.5990075975 -1.2177525669 -1.7252122088
H 3.2614849200 0.3726693374 -2.1712770110
H 1.7625713249 -0.6759756589 -2.0014555534
H 0.1525359565 3.9702236228 1.5337891770
H -1.5254021669 3.8571725714 0.9006338086
H -0.9281668266 2.6254860573 2.0620543956
H -1.8545526298 3.1315237653 -1.6310173652
H -0.4557790454 3.2429780197 -2.6059056766
H -1.0844663777 1.6454866251 -2.2344043465
39
step=11 E=-2646.754533592811 Eh
Co -0.0355712522 -0.0187731137 0.0905740822
P 2.1724142360 0.0224441564 0.0651848551
P -0.0141412061 2.1908206229 -0.1853455480
O -1.9301393976 0.0693167346 0.1152176874
O 0.0681340987 -1.9089262212 0.0587439133
C -2.7176334783 -0.9575712186 0.1586797777
C -2.2995485142 -2.3051267904 0.1805121477
C -0.9493573487 -2.7092875115 0.1305429253
C -4.1916818207 -0.6390454593 0.1442890592
C -0.6143140973 -4.1803210174 0.1118716394
H -3.0465530813 -3.1053869107 0.2770303017
H -4.7104251649 -1.1300887007 0.9923227559
H -4.3508423619 0.4526181823 0.1999690883
H -4.6582946004 -1.0266856593 -0.7848848223
H -1.1157085190 -4.6840451111 -0.7391469262
H 0.4776976879 -4.3256114517 0.0314676939
H -0.9767970760 -4.6745739969 1.0367854438
C 2.6593805328 1.7739826581 0.4182135099
C 1.7648501068 2.6827930532 -0.4576627259
H 3.7429746545 2.0128708769 0.3918435150
H 2.3626908986 1.8895126442 1.4879267751
H 1.9658003035 3.7663074658 -0.3298774143
H 1.9506573462 2.4675903288 -1.5342132390
C 3.0602001495 -1.0385278001 1.2935759869
C 2.7824803237 -0.4799575814 -1.6058604292
C -0.6389446657 3.2675445707 1.1878586717
C -0.8802723171 2.6510391013 -1.7555055119
H 3.9632753369 -0.5320645929 1.6887330380
H 3.3617071397 -1.9843741779 0.8096768158
H 2.3781257774 -1.2710299967 2.1337108695
H 3.6078562907 -1.2155974510 -1.6986387614
H 3.2441338858 0.3980177308 -2.1228639759
H 1.9553252446 -0.7666856029 -2.2874669359
H 0.1564146886 3.9644273794 1.5159404745
H -1.5175001082 3.8596222243 0.8683372786
H -0.9400846475 2.6288985897 2.0396392527
H -1.8487409922 3.1862863125 -1.6503242226
H -0.3091958324 3.2813595102 -2.4669884151
H -1.0966934441 1.6906099574 -2.2625299644
39
step=12 E=-2646.757915267587 Eh
Co -0.0551703849 -0.0339940276 0.0566501349
P 2.1505595363 0.0392316889 0.0568523154
P -0.0024448640 2.1684183681 -0.2300451508
O -1.9554734080 0.0447585024 0.0771702463
O 0.0659573447 -1.9286527099 0.0647024735
C -2.7415306723 -0.9848164408 0.1292200353
C -2.2840995906 -2.3148753036 0.1603767027
C -0.9441005747 -2.7401049926 0.1333728448
C -4.2222823749 -0.6885562393 0.1519529066
C -0.6114383656 -4.2126940466 0.1725116040
H -3.0793315778 -3.0783238260 0.1560605096
H -4.7160855486 -1.1888332192 1.0104095824
H -4.3921385358 0.4013256474 0.2148145551
H -4.7037094448 -1.0778607755 -0.7692946155
H -1.0952086027 -4.7473484452 -0.6712248138
H 0.4825364329 -4.3574234161 0.1181549820
H -0.9925857390 -4.6726014441 1.1079143343
C 2.6855844738 1.7965373919 0.3403400892
C 1.7765368267 2.6851286378 -0.4938090773
H 3.7760878184 1.9715060942 0.2299500364
H 2.4883478450 2.0128660405 1.4167394046
H 1.9794049035 3.7630505978 -0.3226090945
H 2.0063199371 2.5051568568 -1.5678761258
C 2.9559733473 -1.0066703128 1.3341734863
C 2.7837147976 -0.3881768439 -1.6304284421
C -0.5793999161 3.1723086402 1.2157821077
C -0.8681914956 2.6956240870 -1.7688208606
H 3.8682814630 -0.5176471529 1.7320201210
H 3.2316489968 -1.9801803234 0.8831987107
H 2.2450230750 -1.1905324441 2.1624756297
H 3.5805985240 -1.1540570419 -1.6565945629
H 3.2375237150 0.4582463379 -2.1898129877
H 1.9577043153 -0.7191157522 -2.2862950965
H 0.2299258966 3.8450851743 1.5619205146
H -1.4600930625 3.7868247502 0.9456989614
H -0.8690857439 2.4954734760 2.0424986484
H -1.8309355126 3.2175672795 -1.5868205510
H -0.1553310771 3.3572295136 -2.3028611951
H -1.1269513767 1.8256594691 -2.4077352526
39
step=13 E=-2646.762158050612 Eh
Co -0.0503090053 -0.0357197462 0.0107427594
P 2.1459465682 0.0216344617 0.0130009593
P -0.0003221834 2.1607865031 -0.2374106914
O -1.9473305385 0.0580707934 0.0279521711
O 0.0557076571 -1.9294942396 0.0493055611
C -2.7377801206 -0.9666643850 0.1000511003
C -2.3115279075 -2.3093791788 0.1454617417
C -0.9667353829 -2.7254898447 0.1062392971
C -4.2114450276 -0.6479523734 0.1449180873
C -0.6379130225 -4.1963488453 0.1557341528
H -3.0802791194 -3.0940652339 0.2223070289
H -4.6942991879 -1.1336017687 1.0170922022
H -4.3665820025 0.4444709861 0.2001587538
H -4.7179773262 -1.0378819234 -0.7624648147
H -1.1242708531 -4.7357425648 -0.6828830557
H 0.4550183036 -4.3479992445 0.1003035876
H -1.0207096876 -4.6476474963 1.0941736168
C 2.6422234282 1.7733377264 0.3500227280
C 1.7676349608 2.7059414831 -0.5037403149
H 3.7287590598 1.9627715359 0.2244093034
H 2.4262176318 1.9240070120 1.4326948683
H 1.9035043789 3.7913083956 -0.3146642300
H 1.9626437519 2.5589559589 -1.5899343394
C 3.0389833370 -0.9548910625 1.2947709847
C 2.8706778340 -0.5167588657 -1.6058883530
C -0.6109510890 3.1446889414 1.2145812602
C -0.8987976096 2.7431240221 -1.7359119252
H 3.9474269828 -0.4180085417 1.6335335173
H 3.3297629965 -1.9401710476 0.8846328480
H 2.3707673809 -1.1281465312 2.1599510497
H 3.6431548543 -1.3048281897 -1.5300013625
H 3.2954916275 0.3320596970 -2.1785886580
H 2.0460232772 -0.9345385161 -2.2136066066
H 0.1817484372 3.8248202581 1.5831729513
H -1.4953307298 3.7470692069 0.9354804665
H -0.9064638165 2.4607187616 2.0331504390
H -1.8624973322 3.2178893351 -1.4746451276
H -0.2115178861 3.4343528245 -2.2649011339
H -1.1638036408 1.9144332562 -2.4249106857
39
step=14 E=-2646.763497184290 Eh
Co -0.0440210325 -0.0235817574 -0.0064207934
P 2.1590495759 0.0089401785 0.0170098258
P -0.0407122165 2.1657607198 -0.2574932015
O -1.9381719014 0.0758973964 0.0041659897
O 0.0667776260 -1.9160076624 0.0739550192
C -2.7240164453 -0.9513841537 0.0892388162
C -2.3045899373 -2.2970174457 0.1528574484
C -0.9573567746 -2.7099155254 0.1269933521
C -4.1970672100 -0.6312009688 0.1150815317
C -0.6290254823 -4.1802786711 0.1780091580
H -3.0611872899 -3.0932996060 0.2049697062
H -4.6871880723 -1.1075027321 0.9875784782
H -4.3513750877 0.4617544851 0.1574436832
H -4.6961662679 -1.0292452442 -0.7929183274
H -1.1101065909 -4.7205505461 -0.6627022680
H 0.4640202844 -4.3321987198 0.1294736034
H -1.0179206203 -4.6296505087 1.1144937950
C 2.6840476043 1.7586225114 0.3137684715
C 1.7400969577 2.6451880727 -0.5123321073
H 3.7629904482 1.9324878228 0.1121016656
H 2.5402951796 1.9225006593 1.4052160591
H 1.9168986890 3.7151157367 -0.2758064110
H 1.9420001593 2.5210482989 -1.5991605791
C 3.0245749816 -0.9797679945 1.3044106413
C 2.9119254422 -0.5324431909 -1.5867058014
C -0.6400678980 3.1232600854 1.2139638527
C -0.9599713169 2.8131453971 -1.7233455410
H 3.9594865909 -0.4764950592 1.6214025143
H 3.2690911618 -1.9847262063 0.9129884028
H 2.3586869260 -1.1077203160 2.1788212591
H 3.6860845166 -1.3184583562 -1.4916098221
H 3.3222618987 0.3331591405 -2.1409686429
H 2.1201500751 -0.9818411723 -2.2193175598
H 0.1555558696 3.7924389735 1.5956841723
H -1.5211617653 3.7375010379 0.9489084057
H -0.9401362999 2.4236406861 2.0167355433
H -1.9116413098 3.2578172493 -1.3817092066
H -0.4109647748 3.5673320337 -2.3198220442
H -1.1673116593 1.9306681605 -2.3586257754
39
step=15 E=-2646.765440942252 Eh
Co -0.0397723486 -0.0454053459 -0.0130937131
P 2.1553219563 0.0093204056 0.0162837677
P 0.0064455113 2.1440764549 -0.2603598405
O -1.9352479701 0.0540643020 0.0057308319
O 0.0587038345 -1.9398902633 0.0784692922
C -2.7263341862 -0.9682468718 0.0968494407
C -2.3099758400 -2.3126120578 0.1602866350
C -0.9659735874 -2.7316324443 0.1365591621
C -4.1988964051 -0.6438256306 0.1172764997
C -0.6438277275 -4.2041444002 0.1801181631
H -3.0845933730 -3.0915357407 0.1986752246
H -4.6936445979 -1.1184969585 0.9879737254
H -4.3502023383 0.4495652919 0.1584357785
H -4.6956885537 -1.0408429594 -0.7923814568
H -1.1300610207 -4.7388961495 -0.6610497317
H 0.4483329336 -4.3603967509 0.1277103850
H -1.0316024288 -4.6558853705 1.1159800759
C 2.6656055305 1.7794840316 0.2759199315
C 1.7690538074 2.6928601686 -0.5583372069
H 3.7456555802 1.9257201837 0.0622468335
H 2.5266959309 1.9804371807 1.3612334197
H 1.9044235092 3.7719641965 -0.3350575983
H 1.9586632601 2.5672122243 -1.6473271118
C 2.9696506806 -0.9712789326 1.3427745432
C 2.9198679945 -0.4887400654 -1.5959252711
C -0.5769723508 3.0879614209 1.2230276991
C -0.9523008300 2.7969616664 -1.7001868357
H 3.9130243738 -0.4858329178 1.6624314770
H 3.1926140662 -1.9908974934 0.9769875019
H 2.2884640062 -1.0614313382 2.2103182674
H 3.7114590032 -1.2543295138 -1.4827416713
H 3.3184534226 0.3745981542 -2.1616541058
H 2.1393292460 -0.9609023845 -2.2267848627
H 0.2181542558 3.7625541952 1.5961913810
H -1.4670143284 3.6961938824 0.9719202170
H -0.8597639984 2.3814654170 2.0258387804
H -1.9067259502 3.2273372645 -1.3451510645
H -0.4134708007 3.5809653490 -2.2654531909
H -1.1623867832 1.9489298602 -2.3783841536
39
step=16 E=-2646.766160049255 Eh
Co -0.0458740688 -0.0456363248 -0.0328816672
P 2.1516499448 0.0180911284 0.0028283517
P -0.0087340209 2.1429269720 -0.2637527276
O -1.9420074372 0.0520121935 -0.0183551645
O 0.0564479149 -1.9377596160 0.0871862935
C -2.7374795963 -0.9651923479 0.0781894818
C -2.3062180733 -2.3035730505 0.1519355671
C -0.9648007878 -2.7320476360 0.1423126112
C -4.2127394736 -0.6472050107 0.0918436405
C -0.6461843920 -4.2060420612 0.2015185273
H -3.1001387432 -3.0624533058 0.2024687810
H -4.7106482685 -1.1211558846 0.9614694980
H -4.3703937478 0.4455559573 0.1275882478
H -4.7029744896 -1.0504155759 -0.8186161322
H -1.1286347363 -4.7463707211 -0.6382573064
H 0.4458045531 -4.3663576825 0.1579231418
H -1.0413634620 -4.6504540000 1.1380954366
C 2.6930985120 1.7824478178 0.2688526942
C 1.7578144992 2.6812141398 -0.5476614841
H 3.7637618552 1.9257860667 0.0110445522
H 2.5913095579 1.9971840497 1.3547972566
H 1.8789569717 3.7591415111 -0.3104286487
H 1.9482713881 2.5672497577 -1.6361994253
C 2.9897059624 -0.9611654244 1.3164227574
C 2.9435823619 -0.5216522911 -1.5828038550
C -0.5851663420 3.0702998019 1.2353918465
C -0.9846261377 2.8189738333 -1.6811470538
H 3.9568666335 -0.4959339836 1.5927771764
H 3.1702894030 -1.9910541599 0.9549330536
H 2.3409561981 -1.0203163798 2.2113358538
H 3.7397137131 -1.2705983474 -1.4059116837
H 3.3487455091 0.3125575285 -2.1860455048
H 2.1579638685 -1.0295724875 -2.1775631236
H 0.2114026973 3.7386710976 1.6169452322
H -1.4731564722 3.6828576002 0.9877753476
H -0.8698206930 2.3585490247 2.0332433988
H -1.9529404076 3.2253492901 -1.3327795113
H -0.3863649226 3.6248830700 -2.1487194832
H -1.2165349484 2.0587804775 -2.4510785408
39
step=17 E=-2646.767535702335 Eh
Co -0.0479422847 -0.0457423053 -0.0470205810
P 2.1481620372 0.0134560967 -0.0041700948
P -0.0114272379 2.1429192630 -0.2725561822
O -1.9428667598 0.0516132879 -0.0365013849
O 0.0512004391 -1.9360167570 0.0926062030
C -2.7377937396 -0.9651383322 0.0673669414
C -2.3135463917 -2.3058293325 0.1542655805
C -0.9700393301 -2.7295725885 0.1494540652
C -4.2123735847 -0.6430311025 0.0762672451
C -0.6496779005 -4.2028149509 0.2216365116
H -3.0942617470 -3.0772893467 0.2083673980
H -4.7146067217 -1.1110908234 0.9465797243
H -4.3672551394 0.4503005745 0.1056877487
H -4.7002127757 -1.0496486006 -0.8339335122
H -1.1308065825 -4.7495433591 -0.6146351147
H 0.4425562186 -4.3623275266 0.1808620201
H -1.0455774958 -4.6406427995 1.1610674943
C 2.6878727505 1.7819745849 0.2407951534
C 1.7520102250 2.6856465724 -0.5686812177
H 3.7554208684 1.9092152699 -0.0361896431
H 2.6048481893 1.9981263082 1.3277475493
H 1.8767036587 3.7602787529 -0.3196281184
H 1.9390537700 2.5796064002 -1.6587797937
C 2.9694137917 -0.9613818284 1.3191649162
C 2.9607104856 -0.5342500845 -1.5752004783
C -0.5709082575 3.0471033489 1.2468097299
C -0.9965166091 2.8412123842 -1.6683422739
H 3.9559715602 -0.5241588120 1.5722784167
H 3.1083222585 -2.0038369789 0.9748204227
H 2.3303797027 -0.9785791468 2.2225672842
H 3.7882927644 -1.2477253378 -1.3933031561
H 3.3406831915 0.3282503842 -2.1543517829
H 2.2178385398 -1.0703785833 -2.1990359225
H 0.2294197815 3.7091939644 1.6315194500
H -1.4599448215 3.6644318490 1.0158354943
H -0.8495535798 2.3244464377 2.0368551557
H -1.9735518915 3.2103109843 -1.3030586810
H -0.4327215841 3.6818104355 -2.1195956271
H -1.1866396120 2.0662490321 -2.4345448560
39
step=18 E=-2646.769070306134 Eh
Co -0.0459358753 -0.0510657792 -0.0850426032
P 2.1484227675 0.0006688544 -0.0257611698
P -0.0105538690 2.1363171447 -0.2816080202
O -1.9379199062 0.0466413851 -0.0865654434
O 0.0433898597 -1.9355671990 0.1037512474
C -2.7341371216 -0.9661347791 0.0313053491
C -2.3265110456 -2.3105851498 0.1483804295
C -0.9787655903 -2.7253381868 0.1619485914
C -4.2070770990 -0.6345209714 0.0226947057
C -0.6574029586 -4.1971830460 0.2669908121
H -3.0895342594 -3.0947574046 0.2321429991
H -4.7220870980 -1.0924938572 0.8906239590
H -4.3561724335 0.4598397691 0.0406469505
H -4.6862935999 -1.0458496166 -0.8900051140
H -1.1338600296 -4.7597604242 -0.5611389033
H 0.4350101171 -4.3575435285 0.2361155243
H -1.0587966779 -4.6168083108 1.2123267791
C 2.6930370083 1.7774944590 0.1846372771
C 1.7437966508 2.6841218459 -0.6085094739
H 3.7440533510 1.8871443036 -0.1537446071
H 2.6590598304 2.0106184670 1.2697749813
H 1.8778638495 3.7494128160 -0.3282520266
H 1.9193925156 2.5990173381 -1.7021031960
C 2.9345007763 -0.9544077602 1.3304602561
C 2.9975916696 -0.5667636771 -1.5691331920
C -0.5378939354 2.9972426029 1.2740293058
C -1.0328186656 2.8904565502 -1.6127143784
H 3.9719173928 -0.6056321588 1.5052966440
H 2.9455834433 -2.0235850699 1.0448613715
H 2.3471665852 -0.8499046768 2.2625684569
H 3.8840013683 -1.1837684532 -1.3223066603
H 3.3225001298 0.2966698552 -2.1814014700
H 2.3086779395 -1.1860907716 -2.1755878871
H 0.2695039826 3.6462381533 1.6659007627
H -1.4276219731 3.6231963758 1.0698910773
H -0.8086043734 2.2560190388 2.0492405638
H -2.0320112358 3.1290629879 -1.2041378750
H -0.5903396338 3.8212274663 -2.0226715368
H -1.1443241704 2.1509686577 -2.4269128112
