76
1 2 Before single point calculation
Co 0.000000000 0.000000000 0.000000000
P 2.159432326 0.000000000 0.049528265
P 0.000000000 2.180000108 -0.050000003
O -1.880000077 0.000000000 0.050000003
O 0.000000000 -1.880000077 -0.050000003
C -2.749999990 -0.850000067 0.050000003
C -2.000000039 -2.000000039 0.000000000
C -0.850000067 -2.749999990 -0.050000003
C -4.199999930 -0.649999962 0.100000005
C -0.649999962 -4.199999930 -0.100000005
H -2.250000107 -2.250000107 1.049999982
H -4.650000102 -1.200000124 0.899999967
H -4.500000213 0.400000020 0.250000005
H -4.700000066 -1.000000019 -0.825000022
H -1.200000124 -4.650000102 -0.899999967
H 0.400000020 -4.500000213 -0.250000005
H -1.000000019 -4.700000066 0.825000022
C 2.050000002 1.710000025 0.620000035
C 1.190000106 2.539999994 1.520000065
C 0.540000018 3.540000013 0.579999963
H 3.020000094 2.130000145 0.930000020
H 1.600000081 1.630000009 -0.380000016
H 1.830000114 3.079999948 2.230000071
H 0.390000034 1.940000058 1.980000003
H 1.290000032 4.300000361 0.310000017
H -0.349999994 4.030000257 0.990000001
C 3.599999868 -0.850000067 0.850000067
C 4.719999849 -0.050000003 1.420000012
C 3.250000126 -1.850000023 1.950000076
H 3.980000042 -1.350000013 -0.020000000
H 4.980000061 0.750000014 0.720000024
H 5.610000303 -0.660000043 1.630000009
H 4.410000179 0.400000020 2.380000213
H 2.469999995 -2.500000174 1.539999974
H 4.139999823 -2.480000139 2.130000145
H 2.910000023 -1.350000013 2.880000096
C 2.900000132 -1.100000072 -1.299999924
C 4.199999930 -0.649999962 -1.950000076
C 2.500000174 -2.500000174 -1.850000023
H 3.090000092 -1.210000016 -0.210000012
H 4.500000213 0.349999994 -1.600000081
H 5.030000529 -1.340000122 -1.799999934
H 4.050000293 -0.629999989 -3.040000129
H 1.630000009 -2.849999916 -1.280000015
H 3.330000016 -3.210000054 -1.799999934
H 2.200000143 -2.450000211 -2.900000132
C -0.820000013 3.599999868 0.899999967
C -2.099999965 3.900000151 1.350000013
C -2.819999989 5.030000529 0.949999993
C -2.250000107 5.900000190 0.069999999
C -0.970000029 5.599999906 -0.380000016
C -0.250000005 4.470000033 0.020000000
H -2.539999994 3.220000198 2.029999966
H -3.849999936 5.269999948 1.299999924
H -0.540000018 6.280000111 -1.060000000
H 0.780000068 4.230000109 -0.330000022
O -2.980000022 7.030000567 -0.340000008
C -2.450000211 7.960000083 -1.280000015
H -3.260000018 8.600000721 -1.650000044
H -1.619999991 8.569999532 -0.899999967
H -2.120000001 7.459999947 -2.200000143
C -1.150000035 2.900000132 -1.250000087
C -1.100000072 3.499999941 -2.519999958
C -2.150000180 3.599999868 -3.450000231
C -3.250000126 3.099999984 -3.099999984
C -3.300000089 2.500000174 -1.830000114
C -2.250000107 2.400000248 -0.899999967
H -0.250000005 3.900000151 -2.799999953
H -2.099999965 4.050000293 -4.449999745
H -4.199999930 2.099999965 -1.549999992
H -2.300000070 1.950000076 0.100000005
O -4.270000181 3.180000127 -4.040000149
C -5.420000342 2.619999884 -4.679999778
H -5.199999697 2.500000174 -5.750000300
H -6.249999931 3.309999981 -4.500000213
H -5.720000121 1.640000027 -4.280000073
76
step=1 E=-3454.360654868851 Eh
Co 0.0000000000 0.0000000000 0.0000000000
P 2.1594320928 0.0000000000 0.0495282617
P 0.0000000000 2.1799999992 -0.0500000020
O -1.8800000031 0.0000000000 0.0500000020
O 0.0000000000 -1.8800000031 -0.0500000020
C -2.7500000039 -0.8500000022 0.0500000020
C -2.0000000005 -2.0000000005 0.0000000000
C -0.8500000022 -2.7500000039 -0.0500000020
C -4.2000000036 -0.6499999995 0.0999999987
C -0.6499999995 -4.2000000036 -0.0999999987
H -2.2499999999 -2.2499999999 1.0499999996
H -4.6500000004 -1.2000000003 0.8999999989
H -4.4999999997 0.4000000001 0.2499999994
H -4.7000000024 -1.0000000029 -0.8249999985
H -1.2000000003 -4.6500000004 -0.8999999989
H 0.4000000001 -4.4999999997 -0.2499999994
H -1.0000000029 -4.7000000024 0.8249999985
C 2.0500000025 1.7099999984 0.6200000015
C 1.1900000009 2.5400000019 1.5200000003
C 0.5400000014 3.5399999995 0.5799999988
H 3.0200000020 2.1300000025 0.9300000022
H 1.6000000004 1.6299999984 -0.3800000014
H 1.8300000011 3.0800000034 2.2300000012
H 0.3900000008 1.9399999991 1.9800000018
H 1.2899999996 4.3000000023 0.3100000007
H -0.3499999981 4.0300000042 0.9899999982
C 3.6000000008 -0.8500000022 0.8500000022
C 4.7200000011 -0.0500000020 1.4200000016
C 3.2500000027 -1.8499999998 1.9499999985
H 3.9800000022 -1.3500000010 -0.0199999987
H 4.9799999998 0.7499999982 0.7200000002
H 5.6100000006 -0.6599999988 1.6299999984
H 4.4100000004 0.4000000001 2.3800000019
H 2.4700000012 -2.4999999993 1.5399999990
H 4.1400000023 -2.4800000006 2.1300000025
H 2.9100000040 -1.3500000010 2.8800000007
C 2.8999999993 -1.1000000016 -1.2999999990
C 4.2000000036 -0.6499999995 -1.9499999985
C 2.4999999993 -2.4999999993 -1.8499999998
H 3.0900000027 -1.2099999996 -0.2100000020
H 4.4999999997 0.3499999981 -1.6000000004
H 5.0300000018 -1.3400000016 -1.8000000031
H 4.0500000029 -0.6300000008 -3.0400000007
H 1.6299999984 -2.8500000026 -1.2800000003
H 3.3300000028 -3.2100000001 -1.8000000031
H 2.2000000032 -2.4500000025 -2.8999999993
C -0.8199999989 3.6000000008 0.8999999989
C -2.0999999992 3.9000000022 1.3500000010
C -2.8199999993 5.0300000018 0.9500000009
C -2.2499999999 5.9000000027 0.0700000007
C -0.9699999996 5.6000000013 -0.3800000014
C -0.2499999994 4.4700000017 0.0199999987
H -2.5400000019 3.2199999994 2.0299999985
H -3.8500000002 5.2700000019 1.2999999990
H -0.5400000014 6.2800000041 -1.0599999989
H 0.7800000015 4.2300000016 -0.3299999994
O -2.9799999994 7.0300000023 -0.3399999988
C -2.4500000025 7.9600000045 -1.2800000003
H -3.2600000021 8.6000000046 -1.6500000024
H -1.6199999990 8.5700000066 -0.8999999989
H -2.1200000031 7.4600000057 -2.2000000032
C -1.1499999983 2.8999999993 -1.2500000023
C -1.1000000016 3.5000000021 -2.5200000032
C -2.1500000012 3.6000000008 -3.4500000001
C -3.2500000027 3.1000000020 -3.1000000020
C -3.2999999994 2.4999999993 -1.8300000011
C -2.2499999999 2.4000000006 -0.8999999989
H -0.2499999994 3.9000000022 -2.8000000006
H -2.0999999992 4.0500000029 -4.4500000030
H -4.2000000036 2.0999999992 -1.5499999984
H -2.3000000019 1.9499999985 0.0999999987
O -4.2700000043 3.1800000021 -4.0400000036
C -5.4200000026 2.6200000019 -4.6800000037
H -5.2000000012 2.4999999993 -5.7500000020
H -6.2500000008 3.3100000041 -4.4999999997
H -5.7200000040 1.6400000030 -4.2800000036
