75
1 2 Before single point calculation
Co 0.000000000 0.000000000 0.000000000
P 2.159432326 0.000000000 0.049528265
P 0.000000000 2.180000108 -0.050000003
O -1.880000077 0.000000000 0.050000003
O 0.000000000 -1.880000077 -0.050000003
C -2.749999990 -0.850000067 0.050000003
C -2.000000039 -2.000000039 0.000000000
C -0.850000067 -2.749999990 -0.050000003
C -4.199999930 -0.649999962 0.100000005
C -0.649999962 -4.199999930 -0.100000005
H -2.250000107 -2.250000107 1.049999982
H -4.650000102 -1.200000124 0.899999967
H -4.500000213 0.400000020 0.250000005
H -4.700000066 -1.000000019 -0.825000022
H -1.200000124 -4.650000102 -0.899999967
H 0.400000020 -4.500000213 -0.250000005
H -1.000000019 -4.700000066 0.825000022
C 2.050000002 1.549999992 0.850000067
C 1.049999982 2.250000107 0.250000005
C 1.399999977 3.700000046 0.449999983
C 2.749999990 4.100000003 -0.150000016
C 3.750000009 3.150000200 0.449999983
C 3.450000231 1.749999971 0.150000016
H 1.749999971 1.420000012 1.899999986
H 0.400000020 2.180000108 1.129999999
H 1.430000030 3.960000006 1.520000065
H 0.600000062 4.300000361 -0.020000000
H 2.670000100 4.020000113 -1.250000087
H 3.000000058 5.150000238 0.080000001
H 4.760000425 3.430000195 0.109999999
H 3.760000153 3.230000090 1.549999992
H 4.139999823 1.070000018 0.680000016
H 3.670000119 1.520000065 -0.899999967
C 3.599999868 -0.850000067 0.850000067
C 4.719999849 -0.050000003 1.420000012
C 3.250000126 -1.850000023 1.950000076
H 3.980000042 -1.350000013 -0.020000000
H 4.980000061 0.750000014 0.720000024
H 5.610000303 -0.660000043 1.630000009
H 4.410000179 0.400000020 2.380000213
H 2.469999995 -2.500000174 1.539999974
H 4.139999823 -2.480000139 2.130000145
H 2.910000023 -1.350000013 2.880000096
C 2.900000132 -1.100000072 -1.299999924
C 4.199999930 -0.649999962 -1.950000076
C 2.500000174 -2.500000174 -1.850000023
H 3.090000092 -1.210000016 -0.210000012
H 4.500000213 0.349999994 -1.600000081
H 5.030000529 -1.340000122 -1.799999934
H 4.050000293 -0.629999989 -3.040000129
H 1.630000009 -2.849999916 -1.280000015
H 3.330000016 -3.210000054 -1.799999934
H 2.200000143 -2.450000211 -2.900000132
C -0.850000067 3.599999868 0.899999967
C -2.150000180 3.820000008 1.350000013
C -2.900000132 4.920000206 0.930000020
C -2.350000033 5.829999938 0.020000000
C -1.049999982 5.620000194 -0.430000011
C -0.300000031 4.519999996 -0.010000000
H -2.580000065 3.109999876 2.060000020
H -3.920000187 5.090000383 1.290000032
H -2.940000203 6.690000212 -0.310000017
H -0.620000035 6.330000074 -1.140000017
H 0.720000024 4.349999819 -0.369999998
C -1.049999982 2.900000132 -1.350000013
C -1.100000072 3.499999941 -2.619999884
C -2.150000180 3.380000232 -3.540000013
C -3.150000200 2.619999884 -3.190000019
C -3.099999984 2.020000074 -1.920000022
C -2.050000002 2.140000036 -1.000000019
H -0.330000022 4.100000003 -2.910000023
H -2.189999999 3.849999936 -4.530000393
H -3.970000150 2.530000102 -3.910000043
H -3.869999971 1.430000030 -1.630000009
H -2.010000056 1.669999954 -0.010000000
75
step=1 E=-3341.639964740109 Eh
Co 0.0000000000 0.0000000000 0.0000000000
P 2.1594320928 0.0000000000 0.0495282617
P 0.0000000000 2.1799999992 -0.0500000020
O -1.8800000031 0.0000000000 0.0500000020
O 0.0000000000 -1.8800000031 -0.0500000020
C -2.7500000039 -0.8500000022 0.0500000020
C -2.0000000005 -2.0000000005 0.0000000000
C -0.8500000022 -2.7500000039 -0.0500000020
C -4.2000000036 -0.6499999995 0.0999999987
C -0.6499999995 -4.2000000036 -0.0999999987
H -2.2499999999 -2.2499999999 1.0499999996
H -4.6500000004 -1.2000000003 0.8999999989
H -4.4999999997 0.4000000001 0.2499999994
H -4.7000000024 -1.0000000029 -0.8249999985
H -1.2000000003 -4.6500000004 -0.8999999989
H 0.4000000001 -4.4999999997 -0.2499999994
H -1.0000000029 -4.7000000024 0.8249999985
C 2.0500000025 1.5499999984 0.8500000022
C 1.0499999996 2.2499999999 0.2499999994
C 1.4000000030 3.6999999995 0.4500000021
C 2.7500000039 4.0999999996 -0.1500000007
C 3.7500000015 3.1500000040 0.4500000021
C 3.4500000001 1.7500000011 0.1500000007
H 1.7500000011 1.4200000016 1.9000000018
H 0.4000000001 2.1799999992 1.1299999996
H 1.4300000010 3.9600000036 1.5200000003
H 0.6000000028 4.3000000023 -0.0199999987
H 2.6699999986 4.0199999996 -1.2500000023
H 3.0000000033 5.1500000045 0.0800000000
H 4.7600000037 3.4300000015 0.1099999980
H 3.7600000009 3.2300000041 1.5499999984
H 4.1400000023 1.0699999983 0.6800000028
H 3.6700000015 1.5200000003 -0.8999999989
C 3.6000000008 -0.8500000022 0.8500000022
C 4.7200000011 -0.0500000020 1.4200000016
C 3.2500000027 -1.8499999998 1.9499999985
H 3.9800000022 -1.3500000010 -0.0199999987
H 4.9799999998 0.7499999982 0.7200000002
H 5.6100000006 -0.6599999988 1.6299999984
H 4.4100000004 0.4000000001 2.3800000019
H 2.4700000012 -2.4999999993 1.5399999990
H 4.1400000023 -2.4800000006 2.1300000025
H 2.9100000040 -1.3500000010 2.8800000007
C 2.8999999993 -1.1000000016 -1.2999999990
C 4.2000000036 -0.6499999995 -1.9499999985
C 2.4999999993 -2.4999999993 -1.8499999998
H 3.0900000027 -1.2099999996 -0.2100000020
H 4.4999999997 0.3499999981 -1.6000000004
H 5.0300000018 -1.3400000016 -1.8000000031
H 4.0500000029 -0.6300000008 -3.0400000007
H 1.6299999984 -2.8500000026 -1.2800000003
H 3.3300000028 -3.2100000001 -1.8000000031
H 2.2000000032 -2.4500000025 -2.8999999993
C -0.8500000022 3.6000000008 0.8999999989
C -2.1500000012 3.8200000022 1.3500000010
C -2.8999999993 4.9200000038 0.9300000022
C -2.3499999986 5.8300000020 0.0199999987
C -1.0499999996 5.6200000053 -0.4299999981
C -0.3000000014 4.5200000037 -0.0099999993
H -2.5799999993 3.1100000014 2.0600000018
H -3.9200000009 5.0900000032 1.2899999996
H -2.9400000020 6.6900000035 -0.3100000007
H -0.6200000015 6.3300000008 -1.1399999989
H 0.7200000002 4.3500000043 -0.3700000021
C -1.0499999996 2.8999999993 -1.3500000010
C -1.1000000016 3.5000000021 -2.6200000019
C -2.1500000012 3.3799999995 -3.5399999995
C -3.1500000040 2.6200000019 -3.1900000014
C -3.1000000020 2.0199999991 -1.9200000004
C -2.0500000025 2.1400000018 -1.0000000029
H -0.3299999994 4.0999999996 -2.9100000040
H -2.1899999985 3.8500000002 -4.5300000030
H -3.9700000029 2.5300000026 -3.9100000016
H -3.8700000042 1.4300000010 -1.6299999984
H -2.0099999998 1.6700000010 -0.0099999993
75
step=2 E=-3342.233347050393 Eh
Co 0.0111989056 -0.0057480029 0.0266140524
P 2.1776587561 -0.0138362980 0.0559353262
P -0.0357109526 2.1833735360 -0.0400974905
O -1.8774557940 -0.0180343303 0.0958167349
O 0.0395240155 -1.8956295066 -0.0166321467
C -2.7421751308 -0.9009787355 0.1053969240
C -2.0121729915 -2.0770110134 0.0563469570
C -0.8218207191 -2.7802979812 -0.0024887236
C -4.1947638813 -0.7034568327 0.1675366182
C -0.5895447304 -4.2285711556 -0.0484635086
H -2.2506876443 -2.3420074933 1.1123526393
H -4.6380666108 -1.2542034590 0.9782359083
H -4.4917760111 0.3470781723 0.3147438063
H -4.6991877907 -1.0593896654 -0.7517528776
H -1.1411498630 -4.6949760124 -0.8450798112
H 0.4659625198 -4.5013708377 -0.2073244918
H -0.9188184145 -4.7309071728 0.8822254611
C 2.0920190184 1.5456757629 0.8629494569
C 1.0827964564 2.2592928466 0.2691254837
C 1.4160613724 3.7122544140 0.4639234797
C 2.7701411847 4.1083256893 -0.1434900579
C 3.7891385704 3.1586741904 0.4511359670
C 3.4804433296 1.7505034317 0.1502520602
H 1.8066047907 1.4110735795 1.9158490066
H 0.4121137704 2.1856200669 1.1703277506
H 1.4529236323 3.9681826849 1.5335965356
H 0.5668210555 4.3267849693 0.0099285362
H 2.6824233464 4.0271774564 -1.2435238056
H 3.0220141553 5.1578184072 0.0860655959
H 4.7967174091 3.4417832334 0.1012126365
H 3.8107861521 3.2406820843 1.5508035705
H 4.1755764094 1.0626918506 0.6737929813
H 3.6854248215 1.5238131673 -0.9036499899
C 3.6355412155 -0.8815301778 0.8581974714
C 4.7765797923 -0.0906045419 1.4273982089
C 3.2831086426 -1.8825934090 1.9615890168
H 4.0091707924 -1.3880470818 -0.0243663603
H 5.0399626120 0.7145747064 0.7214663160
H 5.6618747084 -0.7111568061 1.6304005404
H 4.4793869455 0.3616918353 2.3902868475
H 2.4922854482 -2.5289465876 1.5633645481
H 4.1663690553 -2.5218339749 2.1376156461
H 2.9555050352 -1.3801392823 2.8926387645
C 2.8955703427 -1.1230465181 -1.3151169061
C 4.1919019693 -0.6864168239 -1.9863285095
C 2.4729896093 -2.5139665806 -1.8615943283
H 3.1008180933 -1.2389328140 -0.2148795586
H 4.5157062427 0.3078310746 -1.6457203911
H 5.0161530576 -1.3900870277 -1.8481539198
H 4.0256391498 -0.6629805728 -3.0741417524
H 1.6083785921 -2.8604346139 -1.2825066145
H 3.3009123876 -3.2290478185 -1.8210891349
H 2.1590005728 -2.4616878856 -2.9094357298
C -0.8957489152 3.6195441026 0.9174558382
C -2.1914255376 3.8394247977 1.3811987345
C -2.9481467330 4.9436417882 0.9778269978
C -2.4165737561 5.8700141427 0.0712881106
C -1.1202367721 5.6798347785 -0.4019952377
C -0.3735681602 4.5717638512 0.0048313362
H -2.6149503495 3.1252245927 2.0915571809
H -3.9637623715 5.1041174434 1.3531571378
H -3.0179925890 6.7293297012 -0.2388464159
H -0.6984280743 6.3991587184 -1.1081669803
H 0.7090494571 4.3963255233 -0.4156043825
C -1.1194252143 2.8991800757 -1.3496685460
C -1.0567053679 3.4788225342 -2.6318251885
C -2.0484684324 3.4196363778 -3.6202920106
C -3.1553692206 2.7387225836 -3.3571820346
C -3.2569739746 2.1525444201 -2.0898847764
C -2.2470287085 2.2212679106 -1.1205761401
H -0.2199731844 4.0315966722 -2.8810200650
H -1.9680100609 3.8843997564 -4.6095821083
H -3.9208298742 2.7069329247 -4.1391800782
H -4.1003896186 1.6181637969 -1.8435037275
H -2.3340736810 1.7528492974 -0.1393832559
