3
0 1 Before single point calculation
O 0.001732521 0.404116743 0.000000000
H -0.783897326 -0.198701860 0.000000000
H 0.782164756 -0.205414899 0.000000000
3
step=1 E=-75.233170054555 Eh
O 0.0017325209 0.4041167607 0.0000000000
H -0.7838972911 -0.1987018622 0.0000000000
H 0.7821647702 -0.2054148985 0.0000000000
3
step=2 E=-75.238492895596 Eh
O 0.0020163423 0.4741526467 0.0000000000
H -0.7500115488 -0.2340904180 0.0000000000
H 0.7479583328 -0.2404987005 0.0000000000
3
step=3 E=-75.238933797956 Eh
O 0.0019565883 0.4598527028 0.0000000001
H -0.7811655119 -0.2267225551 0.0000000000
H 0.7791759084 -0.2333977230 0.0000000001
3
step=4 E=-75.238996499798 Eh
O 0.0019602989 0.4619833727 0.0000000001
H -0.7732250269 -0.2278166898 0.0000000000
H 0.7712210144 -0.2344180311 0.0000000001
3
step=5 E=-75.238996555615 Eh
O 0.0019541773 0.4620490395 0.0000000003
H -0.7729802483 -0.2278262405 0.0000000002
H 0.7709698923 -0.2344182858 0.0000000002
