85
1 2 Before single point calculation
Co 0.000000000 0.000000000 0.000000000
P 2.159432326 0.000000000 0.049528265
P 0.000000000 2.180000108 -0.050000003
O -1.880000077 0.000000000 0.050000003
O 0.000000000 -1.880000077 -0.050000003
C -2.749999990 -0.850000067 0.050000003
C -2.000000039 -2.000000039 0.000000000
C -0.850000067 -2.749999990 -0.050000003
C -4.199999930 -0.649999962 0.100000005
C -0.649999962 -4.199999930 -0.100000005
H -2.250000107 -2.250000107 1.049999982
H -4.650000102 -1.200000124 0.899999967
H -4.500000213 0.400000020 0.250000005
H -4.700000066 -1.000000019 -0.825000022
H -1.200000124 -4.650000102 -0.899999967
H 0.400000020 -4.500000213 -0.250000005
H -1.000000019 -4.700000066 0.825000022
C 2.010000056 1.650000044 0.300000031
C 1.169999944 2.460000103 -0.320000004
C 1.420000012 3.790000081 -0.649999962
C 2.599999848 4.289999964 -0.330000022
C 3.460000122 3.480000158 0.300000031
C 3.200000163 2.150000180 0.620000035
H 0.739999997 4.420000070 -1.150000035
H 2.810000097 5.329999803 -0.579999963
H 4.379999999 3.890000259 0.540000018
H 3.900000151 1.539999974 1.100000072
C 3.720000082 -0.879999994 0.820000013
C 4.949999881 -0.300000031 1.159999927
C 5.980000333 -1.080000036 1.710000025
C 5.789999867 -2.450000211 1.930000040
C 4.560000068 -3.029999985 1.600000081
C 3.530000121 -2.250000107 1.039999965
H 5.120000059 0.769999987 1.000000019
H 6.930000136 -0.620000035 1.980000003
H 4.410000179 -4.100000003 1.759999989
H 2.580000065 -2.710000171 0.780000068
O 6.849999994 -3.120000020 2.469999995
C 6.719999888 -4.530000393 2.720000063
H 7.650000413 -4.909999810 3.170000235
H 6.489999855 -5.070000095 1.790000042
H 5.910000081 -4.719999849 3.430000195
C 2.900000132 -0.850000067 -1.520000065
C 4.179999894 -0.449999983 -1.930000040
C 4.739999632 -0.940000038 -3.109999876
C 4.040000149 -1.850000023 -3.910000043
C 2.760000134 -2.250000107 -3.510000085
C 2.200000143 -1.759999989 -2.319999853
H 4.730000245 0.250000005 -1.299999924
H 5.730000012 -0.620000035 -3.420000051
H 2.220000179 -2.950000095 -4.150000219
H 1.210000016 -2.079999929 -2.000000039
O 4.700000066 -2.280000034 -5.090000383
C 4.030000257 -3.150000200 -6.000000116
H 4.709999957 -3.390000124 -6.830000210
H 3.099999984 -2.700000027 -6.360000254
H 3.810000116 -4.090000112 -5.469999800
C -0.949999993 3.680000263 0.920000066
C -1.950000076 4.420000070 0.300000031
C -2.680000244 5.320000416 1.080000036
C -2.420000032 5.499999980 2.440000067
C -1.420000012 4.760000425 3.070000057
C -0.680000016 3.860000080 2.289999926
H -2.160000072 4.289999964 -0.769999987
H -3.460000122 5.889999793 0.579999963
H -1.220000034 4.900000423 4.139999823
H 0.100000005 3.300000089 2.799999953
C -3.220000198 6.470000072 3.289999945
F -4.330000036 5.929999865 3.799999972
F -3.560000049 7.570000270 2.589999957
F -2.519999958 6.860000390 4.360000215
C -1.150000035 2.920000167 -1.330000104
C -1.220000034 3.549999905 -2.580000065
C -2.300000070 3.420000051 -3.460000122
C -3.330000016 2.660000208 -3.099999984
C -3.270000162 2.020000074 -1.860000041
C -2.180000108 2.150000180 -0.970000029
H -0.430000011 4.150000219 -2.869999952
H -2.350000033 3.900000151 -4.440000358
H -4.070000328 1.440000048 -1.570000028
H -2.130000145 1.650000044 0.000000000
C -4.500000213 2.519999958 -4.040000149
F -4.170000255 3.050000021 -5.260000561
F -5.550000448 3.170000235 -3.510000085
F -4.880000135 1.250000087 -4.249999893
