91
Properties=species:S:1:pos:R:3 Co(acac)(Cy2P-ethylene-PCy2)+;=T plausible=T initial=T 3D=T XYZ=T geometry,=T cationic=T Co(II)=T precursor-like=T complex=T pbc="F F F" explicit_bonds=b0_4_1,b1_17_1,b1_23_1,b1_40_1,b2_18_1,b3_5_2,b4_7_1,b5_6_1,b5_8_1,b6_7_1,b6_10_1,b7_9_1,b8_11_1,b8_12_1,b8_13_1,b9_14_1,b9_15_1,b9_16_1,b17_18_1,b17_19_1,b17_20_1,b18_21_1,b18_22_1,b23_24_1,b23_28_1,b23_29_1,b24_25_1,b24_30_1,b24_31_1,b25_26_1,b25_32_1,b25_33_1,b26_27_1,b26_34_1,b26_35_1,b27_28_1,b27_36_1,b27_37_1,b28_38_1,b28_39_1,b40_41_1,b40_45_1,b40_46_1,b41_42_1,b41_47_1,b41_48_1,b42_43_1,b42_49_1,b42_50_1,b43_44_1,b43_51_1,b43_52_1,b44_45_1,b44_53_1,b44_54_1,b45_55_1,b45_56_1,b57_58_1,b57_62_1,b57_63_1,b58_64_1,b58_65_1,b59_60_1,b59_66_1,b59_67_1,b60_61_1,b60_68_1,b60_69_1,b61_62_1,b61_70_1,b61_71_1,b62_72_1,b62_73_1,b74_75_1,b74_79_1,b74_80_1,b75_76_1,b75_81_1,b75_82_1,b76_77_1,b76_83_1,b76_84_1,b77_78_1,b77_85_1,b77_86_1,b78_79_1,b78_87_1,b78_88_1,b79_89_1,b79_90_1
Co       0.00000000       0.00000000       0.00000000
P        2.15943209       0.00000000       0.04952826
P        0.00000000       2.18000000      -0.05000000
O       -1.88000000       0.00000000       0.05000000
O        0.00000000      -1.88000000      -0.05000000
C       -2.75000000      -0.85000000       0.05000000
C       -2.00000000      -2.00000000       0.00000000
C       -0.85000000      -2.75000000      -0.05000000
C       -4.20000000      -0.65000000       0.10000000
C       -0.65000000      -4.20000000      -0.10000000
H       -2.25000000      -2.25000000       1.05000000
H       -4.65000000      -1.20000000       0.90000000
H       -4.50000000       0.40000000       0.25000000
H       -4.70000000      -1.00000000      -0.82500000
H       -1.20000000      -4.65000000      -0.90000000
H        0.40000000      -4.50000000      -0.25000000
H       -1.00000000      -4.70000000       0.82500000
C        2.05000000       1.55000000       0.85000000
C        1.25000000       2.25000000      -0.25000000
H        3.05000000       1.90000000       1.17000000
H        1.52000000       1.39000000       1.80000000
H        1.79000000       3.14000000       0.10000000
H        1.27000000       2.13000000      -1.34000000
C        3.65000000      -0.80000000       0.85000000
C        4.85000000       0.05000000       1.25000000
C        5.95000000      -0.75000000       1.93000000
C        5.45000000      -1.90000000       2.81000000
C        4.25000000      -2.75000000       2.41000000
C        3.15000000      -1.95000000       1.73000000
H        3.95000000      -1.21000000      -0.13000000
H        5.20000000       0.70000000       0.43000000
H        4.55000000       0.72000000       2.07000000
H        6.80000000      -0.13000000       2.24000000
H        6.35000000      -1.16000000       1.14000000
H        6.25000000      -2.48000000       3.29000000
H        5.10000000      -1.48000000       3.77000000
H        3.90000000      -3.42000000       3.21000000
H        4.55000000      -3.38000000       1.56000000
H        2.30000000      -2.57000000       1.42000000
H        2.75000000      -1.25000000       2.48000000
C        2.95000000      -1.05000000      -1.35000000
C        4.40000000      -0.60000000      -1.65000000
C        4.85000000      -1.05000000      -3.05000000
C        4.00000000      -0.40000000      -4.15000000
C        2.55000000      -0.85000000      -3.85000000
C        2.10000000      -0.40000000      -2.45000000
H        2.95000000      -2.15000000      -1.25000000
H        4.50000000       0.50000000      -1.56000000
H        5.05000000      -1.02000000      -0.90000000
H        5.90000000      -0.70000000      -3.24000000
H        4.85000000      -2.15000000      -3.14000000
H        4.30000000      -0.73000000      -5.16000000
H        4.05000000       0.70000000      -4.08000000
H        1.95000000      -0.32000000      -4.63000000
H        2.45000000      -1.95000000      -3.93000000
H        1.05000000      -0.75000000      -2.25000000
H        2.10000000       0.70000000      -2.36000000
C       -0.85000000       3.60000000       0.90000000
C       -2.13000000       3.95000000       0.15000000
C       -2.76000000       5.15000000       0.86000000
C       -1.78000000       6.28000000       1.12000000
C       -0.50000000       5.93000000       1.87000000
C        0.13000000       4.73000000       1.16000000
H       -1.15000000       3.10000000       1.78000000
H       -2.87000000       3.15000000       0.03000000
H       -1.88000000       4.21000000      -0.89000000
H       -3.67000000       5.51000000       0.36000000
H       -3.06000000       4.82000000       1.87000000
H       -2.25000000       7.15000000       1.60000000
H       -1.48000000       6.63000000       0.12000000
H       -0.73000000       5.70000000       2.93000000
H        0.22000000       6.75000000       1.78000000
H        1.04000000       4.39000000       1.68000000
H        0.44000000       5.05000000       0.15000000
C       -1.15000000       2.90000000      -1.30000000
C       -1.95000000       3.98000000      -2.05000000
C       -3.37000000       3.50000000      -2.35000000
C       -4.17000000       2.75000000      -1.28000000
C       -3.37000000       1.67000000      -0.53000000
C       -1.95000000       2.15000000      -0.23000000
H       -0.32000000       3.18000000      -1.98000000
H       -1.42000000       4.42000000      -2.90000000
H       -2.00000000       4.80000000      -1.32000000
H       -3.93000000       4.34000000      -2.79000000
H       -3.35000000       2.85000000      -3.24000000
H       -5.19000000       2.40000000      -1.53000000
H       -4.28000000       3.39000000      -0.39000000
H       -3.34000000       1.02000000      -1.42000000
H       -3.90000000       1.17000000       0.29000000
H       -1.38000000       1.30000000       0.18000000
H       -1.98000000       2.77000000       0.68000000
