95
rdkit_etkdg_mmff_conf_1
C -12.17059324 3.04928257 -1.37548793
C -12.71980868 1.93947530 -2.01522340
C -12.42477609 0.65332261 -1.55774678
C -11.56655957 0.46366049 -0.46573357
C -11.28106525 -0.90030250 -0.00255747
N -12.23627725 -1.77504533 0.25937383
C -11.61782845 -2.86715782 0.79316144
C -12.19422815 -4.06084470 1.25556576
C -11.36280438 -5.07768403 1.73337628
C -9.97970115 -4.91512895 1.73530223
C -9.38866649 -3.73142263 1.27624287
C -10.23691050 -2.69963600 0.83343962
N -10.02037106 -1.43440082 0.28974107
C -8.74935281 -0.83630510 0.04710413
C -7.72084662 -0.96002528 0.98593665
C -6.47447424 -0.37048150 0.74355785
C -6.22426147 0.34960110 -0.43596813
C -4.90836803 0.96230668 -0.69121347
C -3.72398139 0.22429952 -0.54905134
C -2.47346972 0.80485765 -0.79756113
C -2.36474302 2.14206244 -1.19999592
C -1.06421999 2.74745293 -1.47394359
C -0.64929536 3.92109214 -2.07078786
C 0.76768114 3.91971314 -2.03308424
C 1.14752579 2.75058024 -1.40511481
C 2.42996267 2.14744494 -1.05341354
C 3.62276741 2.62813862 -1.60726604
C 4.85645940 2.05522702 -1.26881142
C 4.93860199 0.98688758 -0.36277522
C 6.23644516 0.38873628 -0.00238601
C 7.32295746 1.19017520 0.38409068
C 8.55631586 0.62646992 0.73127830
C 8.72572610 -0.76165492 0.70236045
N 9.97730065 -1.34211641 1.06149085
C 11.25627105 -0.86906086 0.74575642
C 11.57916157 0.23442260 -0.16767173
C 11.03148930 0.31112886 -1.45623075
C 11.36651461 1.36734495 -2.30717388
C 12.26239629 2.34766789 -1.88372007
C 12.83210659 2.26902672 -0.61439968
C 12.49697500 1.21374719 0.23646497
N 12.18785840 -1.59885856 1.33407951
C 11.53212407 -2.60190585 1.98499585
C 12.07198713 -3.65285697 2.74298701
C 11.20682587 -4.55870571 3.36274781
C 9.82707556 -4.41249244 3.24136481
C 9.27231903 -3.36834759 2.49115405
C 10.15303363 -2.48409349 1.84125549
C 7.65597159 -1.57569921 0.31819196
C 6.42810490 -1.00230655 -0.03232213
C 3.74068101 0.50950782 0.18955084
C 2.50710089 1.07934621 -0.15074354
O 0.03122069 2.03890638 -1.06680559
C -3.54407392 2.88346620 -1.34222739
C -4.79485334 2.30280752 -1.09035145
C -7.26972664 0.46397431 -1.36641125
C -8.51999958 -0.11928473 -1.13160205
C -11.04078449 1.58877394 0.18546844
C -11.33542150 2.87512946 -0.27309191
H -12.40570790 4.05060890 -1.72735321
H -13.38551459 2.07305748 -2.86413289
H -12.87177225 -0.20764475 -2.05200232
H -13.27138962 -4.18482389 1.22938009
H -11.80151010 -6.00634721 2.09020811
H -9.34560380 -5.72621889 2.08862494
H -8.30785192 -3.64308334 1.25054674
H -7.87482374 -1.46631200 1.93575805
H -5.69754574 -0.46173271 1.50103119
H -3.76155831 -0.82309283 -0.25627819
H -1.58167248 0.19191735 -0.68282601
H -1.28691808 4.68502579 -2.49187417
H 1.42800657 4.68568008 -2.41337689
H 3.61198178 3.44929728 -2.31976070
H 5.75874132 2.44830250 -1.73376545
H 7.21200104 2.27209904 0.43804070
H 9.35205054 1.29306025 1.05661921
H 10.34700720 -0.45490433 -1.81328844
H 10.93448400 1.41907131 -3.30331816
H 12.52700844 3.16639095 -2.54801974
H 13.54485406 3.02212947 -0.28828819
H 12.95928627 1.15048681 1.22001604
H 13.14749829 -3.74661086 2.84588243
H 11.61703710 -5.37362508 3.95414474
H 9.16750236 -5.11411382 3.74880684
H 8.19482736 -3.25189744 2.44278746
H 7.76393008 -2.65435962 0.23341806
H 5.61866844 -1.65730627 -0.35105087
H 3.75463215 -0.30782257 0.90766091
H 1.60386637 0.68296181 0.30925638
H -3.51023161 3.92762514 -1.64323350
H -5.68646569 2.91749564 -1.19968652
H -7.11202826 0.99733194 -2.30254227
H -9.28106617 -0.02893461 -1.90328786
H -10.40437705 1.47522705 1.06022222
H -10.92084451 3.74084301 0.23704626
