85
Properties=species:S:1:pos:R:3 Co(acac)(p-Anisyl2P-1,2-phenylene-P(p-CF3-Ph)2)+;=T plausible=T initial=T 3D=T XYZ=T geometry=T pbc="F F F" explicit_bonds=b0_1_1,b0_3_1,b0_4_1,b1_17_1,b1_27_1,b1_42_1,b2_18_1,b2_71_1,b3_5_1,b4_7_1,b5_6_1,b5_8_1,b6_7_2,b6_10_1,b7_9_1,b8_11_1,b8_12_1,b8_13_1,b9_14_1,b9_15_1,b9_16_1,b17_18_2,b17_22_1,b18_19_1,b19_20_2,b19_23_1,b20_21_1,b20_24_1,b21_22_2,b21_25_1,b22_26_1,b27_28_1,b27_32_2,b28_29_2,b28_33_1,b29_30_1,b29_34_1,b30_31_2,b30_37_1,b31_32_1,b31_35_1,b32_36_1,b37_38_1,b38_39_1,b38_40_1,b38_41_1,b42_43_1,b42_47_2,b43_44_2,b43_48_1,b44_45_1,b44_49_1,b45_46_2,b45_52_1,b46_47_1,b46_50_1,b47_51_1,b52_53_1,b53_54_1,b53_55_1,b53_56_1,b57_58_2,b57_62_1,b58_59_1,b58_63_1,b59_60_2,b59_64_1,b60_61_1,b60_67_1,b61_62_2,b61_65_1,b62_66_1,b67_68_1,b67_69_1,b67_70_1,b71_72_2,b71_76_1,b72_73_1,b72_77_1,b73_74_2,b73_78_1,b74_75_1,b74_81_1,b75_76_2,b75_79_1,b76_80_1,b81_82_1,b81_83_1,b81_84_1
Co       0.00000000       0.00000000       0.00000000
P        2.15943209       0.00000000       0.04952826
P        0.00000000       2.18000000      -0.05000000
O       -1.88000000       0.00000000       0.05000000
O        0.00000000      -1.88000000      -0.05000000
C       -2.75000000      -0.85000000       0.05000000
C       -2.00000000      -2.00000000       0.00000000
C       -0.85000000      -2.75000000      -0.05000000
C       -4.20000000      -0.65000000       0.10000000
C       -0.65000000      -4.20000000      -0.10000000
H       -2.25000000      -2.25000000       1.05000000
H       -4.65000000      -1.20000000       0.90000000
H       -4.50000000       0.40000000       0.25000000
H       -4.70000000      -1.00000000      -0.82500000
H       -1.20000000      -4.65000000      -0.90000000
H        0.40000000      -4.50000000      -0.25000000
H       -1.00000000      -4.70000000       0.82500000
C        2.01000000       1.65000000       0.30000000
C        1.17000000       2.46000000      -0.32000000
C        1.42000000       3.79000000      -0.65000000
C        2.60000000       4.29000000      -0.33000000
C        3.46000000       3.48000000       0.30000000
C        3.20000000       2.15000000       0.62000000
H        0.74000000       4.42000000      -1.15000000
H        2.81000000       5.33000000      -0.58000000
H        4.38000000       3.89000000       0.54000000
H        3.90000000       1.54000000       1.10000000
C        3.72000000      -0.88000000       0.82000000
C        4.95000000      -0.30000000       1.16000000
C        5.98000000      -1.08000000       1.71000000
C        5.79000000      -2.45000000       1.93000000
C        4.56000000      -3.03000000       1.60000000
C        3.53000000      -2.25000000       1.04000000
H        5.12000000       0.77000000       1.00000000
H        6.93000000      -0.62000000       1.98000000
H        4.41000000      -4.10000000       1.76000000
H        2.58000000      -2.71000000       0.78000000
O        6.85000000      -3.12000000       2.47000000
C        6.72000000      -4.53000000       2.72000000
H        7.65000000      -4.91000000       3.17000000
H        6.49000000      -5.07000000       1.79000000
H        5.91000000      -4.72000000       3.43000000
C        2.90000000      -0.85000000      -1.52000000
C        4.18000000      -0.45000000      -1.93000000
C        4.74000000      -0.94000000      -3.11000000
C        4.04000000      -1.85000000      -3.91000000
C        2.76000000      -2.25000000      -3.51000000
C        2.20000000      -1.76000000      -2.32000000
H        4.73000000       0.25000000      -1.30000000
H        5.73000000      -0.62000000      -3.42000000
H        2.22000000      -2.95000000      -4.15000000
H        1.21000000      -2.08000000      -2.00000000
O        4.70000000      -2.28000000      -5.09000000
C        4.03000000      -3.15000000      -6.00000000
H        4.71000000      -3.39000000      -6.83000000
H        3.10000000      -2.70000000      -6.36000000
H        3.81000000      -4.09000000      -5.47000000
C       -0.95000000       3.68000000       0.92000000
C       -1.95000000       4.42000000       0.30000000
C       -2.68000000       5.32000000       1.08000000
C       -2.42000000       5.50000000       2.44000000
C       -1.42000000       4.76000000       3.07000000
C       -0.68000000       3.86000000       2.29000000
H       -2.16000000       4.29000000      -0.77000000
H       -3.46000000       5.89000000       0.58000000
H       -1.22000000       4.90000000       4.14000000
H        0.10000000       3.30000000       2.80000000
C       -3.22000000       6.47000000       3.29000000
F       -4.33000000       5.93000000       3.80000000
F       -3.56000000       7.57000000       2.59000000
F       -2.52000000       6.86000000       4.36000000
C       -1.15000000       2.92000000      -1.33000000
C       -1.22000000       3.55000000      -2.58000000
C       -2.30000000       3.42000000      -3.46000000
C       -3.33000000       2.66000000      -3.10000000
C       -3.27000000       2.02000000      -1.86000000
C       -2.18000000       2.15000000      -0.97000000
H       -0.43000000       4.15000000      -2.87000000
H       -2.35000000       3.90000000      -4.44000000
H       -4.07000000       1.44000000      -1.57000000
H       -2.13000000       1.65000000      -0.00000000
C       -4.50000000       2.52000000      -4.04000000
F       -4.17000000       3.05000000      -5.26000000
F       -5.55000000       3.17000000      -3.51000000
F       -4.88000000       1.25000000      -4.25000000
