79
Properties=species:S:1:pos:R:3 Co(acac)((p-CF3-Ph)2P-ethylene-P(p-CF3-Ph)2)+;=T plausible=T initial=T 3D=T XYZ=T geometry=T pbc="F F F" explicit_bonds=b0_1_1,b0_3_1,b0_4_1,b1_17_1,b1_23_1,b1_37_1,b2_18_1,b3_5_1,b4_7_1,b5_6_1,b5_8_1,b6_7_2,b6_10_1,b7_9_1,b8_11_1,b8_12_1,b8_13_1,b9_14_1,b9_15_1,b9_16_1,b17_18_1,b17_19_1,b17_20_1,b18_21_1,b18_22_1,b23_24_1,b23_28_2,b24_25_2,b24_29_1,b25_26_1,b25_30_1,b26_27_2,b26_33_1,b27_28_1,b27_31_1,b28_32_1,b33_34_1,b33_35_1,b33_36_1,b37_38_1,b37_42_2,b38_39_2,b38_43_1,b39_40_1,b39_44_1,b40_41_2,b40_47_1,b41_42_1,b41_45_1,b42_46_1,b47_48_1,b47_49_1,b47_50_1,b51_52_2,b51_56_1,b52_53_1,b52_57_1,b53_54_2,b53_58_1,b54_55_1,b54_61_1,b55_56_2,b55_59_1,b56_60_1,b61_62_1,b61_63_1,b61_64_1,b65_66_2,b65_70_1,b66_67_1,b66_71_1,b67_68_2,b67_72_1,b68_69_1,b68_75_1,b69_70_2,b69_73_1,b70_74_1,b75_76_1,b75_77_1,b75_78_1
Co       0.00000000       0.00000000       0.00000000
P        2.15943209       0.00000000       0.04952826
P        0.00000000       2.18000000      -0.05000000
O       -1.88000000       0.00000000       0.05000000
O        0.00000000      -1.88000000      -0.05000000
C       -2.75000000      -0.85000000       0.05000000
C       -2.00000000      -2.00000000       0.00000000
C       -0.85000000      -2.75000000      -0.05000000
C       -4.20000000      -0.65000000       0.10000000
C       -0.65000000      -4.20000000      -0.10000000
H       -2.25000000      -2.25000000       1.05000000
H       -4.65000000      -1.20000000       0.90000000
H       -4.50000000       0.40000000       0.25000000
H       -4.70000000      -1.00000000      -0.82500000
H       -1.20000000      -4.65000000      -0.90000000
H        0.40000000      -4.50000000      -0.25000000
H       -1.00000000      -4.70000000       0.82500000
C        2.05000000       1.55000000       0.85000000
C        1.25000000       2.25000000      -0.25000000
H        3.05000000       1.90000000       1.17000000
H        1.52000000       1.39000000       1.80000000
H        1.79000000       3.14000000       0.10000000
H        1.27000000       2.13000000      -1.34000000
C        3.72000000      -0.88000000       0.82000000
C        4.95000000      -0.30000000       1.16000000
C        5.98000000      -1.08000000       1.71000000
C        5.79000000      -2.45000000       1.93000000
C        4.56000000      -3.03000000       1.60000000
C        3.53000000      -2.25000000       1.04000000
H        5.12000000       0.77000000       1.00000000
H        6.93000000      -0.62000000       1.98000000
H        4.41000000      -4.10000000       1.76000000
H        2.58000000      -2.71000000       0.78000000
C        6.90000000      -3.28000000       2.52000000
F        7.99000000      -2.62000000       2.81000000
F        7.24000000      -4.27000000       1.66000000
F        6.58000000      -3.86000000       3.70000000
C        2.90000000      -0.85000000      -1.52000000
C        4.18000000      -0.45000000      -1.93000000
C        4.74000000      -0.94000000      -3.11000000
C        4.04000000      -1.85000000      -3.91000000
C        2.76000000      -2.25000000      -3.51000000
C        2.20000000      -1.76000000      -2.32000000
H        4.73000000       0.25000000      -1.30000000
H        5.73000000      -0.62000000      -3.42000000
H        2.22000000      -2.95000000      -4.15000000
H        1.21000000      -2.08000000      -2.00000000
C        4.68000000      -2.41000000      -5.17000000
F        5.94000000      -2.01000000      -5.32000000
F        4.01000000      -1.93000000      -6.22000000
F        4.62000000      -3.75000000      -5.18000000
C       -0.95000000       3.68000000       0.92000000
C       -1.95000000       4.42000000       0.30000000
C       -2.68000000       5.32000000       1.08000000
C       -2.42000000       5.50000000       2.44000000
C       -1.42000000       4.76000000       3.07000000
C       -0.68000000       3.86000000       2.29000000
H       -2.16000000       4.29000000      -0.77000000
H       -3.46000000       5.89000000       0.58000000
H       -1.22000000       4.90000000       4.14000000
H        0.10000000       3.30000000       2.80000000
C       -3.22000000       6.47000000       3.29000000
F       -4.33000000       5.93000000       3.80000000
F       -3.56000000       7.57000000       2.59000000
F       -2.52000000       6.86000000       4.36000000
C       -1.15000000       2.92000000      -1.33000000
C       -1.22000000       3.55000000      -2.58000000
C       -2.30000000       3.42000000      -3.46000000
C       -3.33000000       2.66000000      -3.10000000
C       -3.27000000       2.02000000      -1.86000000
C       -2.18000000       2.15000000      -0.97000000
H       -0.43000000       4.15000000      -2.87000000
H       -2.35000000       3.90000000      -4.44000000
H       -4.07000000       1.44000000      -1.57000000
H       -2.13000000       1.65000000      -0.00000000
C       -4.50000000       2.52000000      -4.04000000
F       -4.17000000       3.05000000      -5.26000000
F       -5.55000000       3.17000000      -3.51000000
F       -4.88000000       1.25000000      -4.25000000
