39
Properties=species:S:1:pos:R:3 Co(acac)(Me2P-ethylene-PMe2)+;=T plausible=T initial=T 3D=T XYZ=T geometry,=T cationic=T Co(II)=T precursor-like=T complex=T pbc="F F F" explicit_bonds=b0_1_1,b0_2_1,b0_3_1,b0_4_1,b1_17_1,b1_23_1,b1_24_1,b2_18_1,b2_25_1,b2_26_1,b3_5_1,b4_7_1,b5_6_1,b5_8_1,b6_7_2,b6_10_1,b7_9_1,b8_11_1,b8_12_1,b8_13_1,b9_14_1,b9_15_1,b9_16_1,b17_18_1,b17_19_1,b17_20_1,b18_21_1,b18_22_1,b23_27_1,b23_28_1,b23_29_1,b24_30_1,b24_31_1,b24_32_1,b25_33_1,b25_34_1,b25_35_1,b26_36_1,b26_37_1,b26_38_1
Co       0.00000000       0.00000000       0.00000000
P        2.14000000       0.00000000       0.00000000
P        0.00000000       2.15000000       0.00000000
O       -1.85000000       0.00000000       0.05000000
O        0.00000000      -1.85000000      -0.05000000
C       -2.80000000      -0.85000000       0.05000000
C       -2.00000000      -2.00000000       0.00000000
C       -0.85000000      -2.80000000      -0.05000000
C       -4.25000000      -0.65000000       0.10000000
C       -0.65000000      -4.25000000      -0.10000000
H       -2.25000000      -2.25000000       1.05000000
H       -4.65000000      -1.20000000       0.95000000
H       -4.55000000       0.40000000       0.20000000
H       -4.75000000      -1.05000000      -0.80000000
H       -1.20000000      -4.65000000      -0.95000000
H        0.40000000      -4.55000000      -0.20000000
H       -1.05000000      -4.75000000       0.80000000
C        2.05000000       1.55000000       0.95000000
C        1.80000000       2.25000000      -0.35000000
H        2.95000000       2.10000000       1.25000000
H        1.20000000       1.48000000       1.65000000
H        2.35000000       3.15000000      -0.05000000
H        1.85000000       2.15000000      -1.45000000
C        3.65000000      -0.80000000       0.75000000
C        2.95000000      -1.10000000      -1.25000000
C       -0.80000000       3.65000000       0.75000000
C       -1.10000000       2.95000000      -1.25000000
H        4.40000000      -0.05000000       1.05000000
H        4.15000000      -1.55000000       0.15000000
H        3.30000000      -1.30000000       1.65000000
H        3.60000000      -1.95000000      -1.50000000
H        3.30000000      -0.25000000      -1.85000000
H        2.10000000      -1.50000000      -1.80000000
H       -0.05000000       4.40000000       1.05000000
H       -1.55000000       4.15000000       0.15000000
H       -1.30000000       3.30000000       1.65000000
H       -1.95000000       3.60000000      -1.50000000
H       -0.25000000       3.30000000      -1.85000000
H       -1.50000000       2.10000000      -1.80000000
