39

Co -0.052864 -0.233045 0.045592
P 2.139486 -0.239244 0.118798
P 0.058298 1.939940 -0.229537
O -1.943604 -0.095900 -0.055554
O -0.018703 -2.113337 0.309092
C -2.771767 -1.086909 0.047922
C -2.393059 -2.430730 0.242653
C -1.061708 -2.879746 0.360343
C -4.226646 -0.711371 -0.061587
C -0.764828 -4.342337 0.566429
H -3.191784 -3.180723 0.309815
H -4.898369 -1.579523 0.060610
H -4.474810 0.051287 0.704834
H -4.417523 -0.243885 -1.049858
H -1.679503 -4.960837 0.590101
H -0.100617 -4.706616 -0.244127
H -0.210579 -4.480018 1.517924
C 2.759758 1.514404 0.249552
C 1.827124 2.437014 -0.549767
H 3.814616 1.590812 -0.087271
H 2.746943 1.775772 1.329328
H 1.990553 3.508258 -0.309774
H 1.995939 2.321893 -1.641822
C 2.894234 -1.182022 1.494636
C 2.897441 -0.941580 -1.401821
C -0.479240 2.871011 1.261659
C -0.948346 2.625804 -1.596364
H 4.000491 -1.184663 1.426068
H 2.511264 -2.219831 1.438086
H 2.584738 -0.747079 2.464826
H 4.004066 -0.940317 -1.332516
H 2.585464 -0.361514 -2.292198
H 2.538018 -1.982887 -1.520232
H 0.155586 2.607840 2.130206
H -0.428222 3.964979 1.088492
H -1.523769 2.582609 1.492485
H -1.998840 2.318632 -1.426105
H -0.881424 3.731540 -1.634486
H -0.612075 2.201611 -2.562430
