##TITLE=1D-19F-32-1.64-10-90--60.0-"High"
##JCAMP-DX=5.01 $$ Magritek Spinsolve SPA3315 2.8.2.9926
##DATA TYPE=NMR FID
##DATA CLASS=NTUPLES
##ORIGIN=SPA3315 at Magritek
##OWNER=Copyright (C) 2026 by Magritek
##LONGDATE=2026/07/25 23:05:15.819
##.OBSERVE FREQUENCY=58.1384524703026
##.OBSERVE NUCLEUS=^19F
##.DELAY=( 20,  10000)
##.ACQUISITION MODE=SIMULTANEOUS
##.FIELD= 1.5
##.AVERAGES= 32
##.DIGITISER RES=16
##.SHIFT REFERENCE=(INTERNAL, None, 16384, 0)
##$REFERENCE_POINT= 5988.307    $$ Referencing label
$$      Distance of the zero axis position (in Hz) from the last data
$$      point (right edge); positive values -> right edge is below 0 Hz
##SPECTROMETER/DATA SYSTEM=Magritek
##SAMPLE DESCRIPTION=solvent=None
$$ Bruker specific parameters
$$ --------------------------
##$AUNMP=   <proc_1d_nosref>
##$INSTRUM= <Magritek>
##$SI=      8192
##$TD=      8192
##$TDeff=   8192
##$SW=      86.001600
##$BF1=     58.1384524703026
##$SF=      58.1419407774508
##$LB=      1.00
##$GB=      0
##$PHC0=    136.4
##$PHC1=    0.0
##$REVERSE= yes
$$ End of Bruker specific parameters
$$ ---------------------------------
##NTUPLES=NMR FID
##VAR_NAME=        TIME,            FID/REAL,            FID/IMAG, PAGE NUMBER
##SYMBOL=             X,                   R,                   I,           N
##VAR_TYPE= INDEPENDENT,           DEPENDENT,           DEPENDENT,        PAGE
##VAR_FORM=        AFFN,                AFFN,                AFFN,        AFFN
##VAR_DIM=         8192,                8192,                8192,           2
##UNITS=        SECONDS,     ARBITRARY UNITS,     ARBITRARY UNITS,            
##FIRST=              0,      4.610116689904,2.22044604925031e-16,           1
##LAST=    1.638199e+00,-1.4898263676995e-03, 0.00707378608234991,           2
##MIN=                0,   -7.70130729713248,   -7.45776249279347,           1
##MAX=     1.638199e+00,     8.1768474361521,    6.70080711354607,           2
##FACTOR=             1,                   1,                   1,           1
##PAGE=N=1
##DATA TABLE=(X++(R..R)), XYDATA
0.000000     4.610117    -2.477011    -4.075828     1.643718     8.176847     6.433319
0.001200    -0.173187    -2.873457     0.106201     6.693693     4.976848    -0.862666
0.002400    -4.639200    -1.298191     3.031393     3.898071    -3.976194    -4.259040
0.003600    -1.908915     3.798418     2.308663    -1.501046    -4.422845    -2.701513
0.004800     0.883798     2.821796    -2.871798    -7.701307    -1.924851     2.502677
0.006000     1.705935    -0.841948    -4.372556    -3.320270     1.242044     3.417379
0.007200    -0.187506    -3.699595    -0.856550     2.161759     3.522706     0.767998
0.008400    -3.696071    -2.838997     2.505600     3.554936     0.815218    -3.387159
0.009600    -2.362312     2.041319     5.731552     2.034083    -2.138145    -2.118294
0.010800    -1.002449     3.288451     2.126178    -1.793756    -5.482415    -1.715334
0.012000     1.814737     1.027003    -2.164684    -3.499169    -1.869738     0.969806
0.013200     1.932761     0.077811    -4.353386    -1.298974     2.057607     2.266446
0.014400    -2.319727    -3.503927    -0.808514     1.644725     0.216236     0.082540
0.015600    -2.938822    -1.103850     1.663813     4.257860     1.799754    -1.447462
0.016800     1.559136     1.499732     2.535392    -0.934342    -2.528474    -2.908927
0.018000     0.318259     2.639146     1.022155    -3.142023    -1.843165     0.243761
0.019200     2.796723     0.038767    -0.779596    -2.791857     0.499726     0.811469
0.020400     2.067007    -1.089659    -3.061670    -0.969678     2.526513     0.342185
0.021600    -2.497088    -2.481369    -1.451020     1.391373     1.779601    -0.142490
0.022800    -0.860281    -1.060692     1.753552     1.611707     1.314573    -1.438645
0.024000    -0.209194     0.802837     2.775792     1.200197    -1.347534    -0.966808
0.025200    -0.066443     2.931953    -0.022418    -2.938845    -0.772780     1.075699
0.026400     1.716889     0.205269    -1.502917    -2.745930    -0.830346     2.987743
0.027600     0.776884    -1.343661    -2.016161     0.166293     1.880149     0.520820
0.028800    -0.911864    -2.700456    -2.723079     1.284380     0.760812     0.194892
0.030000    -1.430742    -0.610292     1.294075     1.997768     0.257555    -1.328833
0.031200    -0.448791     1.057617     1.840229     0.710096    -1.239486    -0.980006
0.032400     1.394600     3.106437     0.143188    -1.682539    -2.554189     0.347696
0.033600     1.664823    -0.064288    -0.617377    -3.229664     0.755248     2.073624
0.034800    -1.246298    -1.266786    -2.618028    -1.377051     1.488164     0.657275
0.036000    -1.280001     0.493442    -0.611295     1.580220     1.165101    -0.188623
0.037200    -0.911210    -0.706679     0.516520     2.159295    -1.272393    -1.306800
0.038400     0.353258     0.066463     1.333729     1.563834    -1.622540     0.199930
0.039600     0.494354     1.805383     0.553806    -2.024462    -0.960846     0.460038
0.040800     0.518652     0.404941    -2.782603    -0.083559     0.105487     0.019303
0.042000    -0.030858    -1.115629    -2.766002     1.408011     1.216092     0.391581
0.043200    -1.782629    -1.648191    -0.974351     1.415263     0.244459    -0.917399
0.044400    -2.369815    -0.747153     0.058598     0.741813     0.692323    -1.949538
0.045600    -0.328698     0.466281     2.207289     0.873818    -2.841792     0.318238
0.046800     1.019507     2.544430     0.485123     0.178258     1.035603     1.512767
0.048000     1.297936    -0.728973    -0.536167    -1.961169     0.814804     1.548769
0.049200     0.206554    -1.413203    -0.361680     0.347609    -0.026768    -0.027539
0.050400    -2.190596    -1.661464     0.848535     1.528294     0.012213    -1.572397
0.051600    -3.499305     0.099074     1.234695    -0.288528    -0.616134    -0.801008
0.052800    -0.197688     1.485180     0.093493    -1.208326     0.102458    -1.637809
0.054000     2.050453     0.180227     0.142199    -1.597854     0.043252     0.740133
0.055200     0.708343     0.457170    -0.919261    -1.240186     0.493044     1.041637
0.056400     0.579549    -1.835409    -1.133029     0.303046     0.648562     1.447537
0.057600    -1.215331    -1.627932     0.018252     0.054984     0.613238    -0.987164
0.058800    -1.256385    -0.573442     1.371029     1.187124     0.281273     0.835574
0.060000    -1.873990     1.854547     1.406220    -0.824026    -0.562974    -1.203439
0.061200     1.714526     1.353150     0.064868    -0.322573     0.647321     0.005595
0.062400    -0.390293    -0.803359     0.032570     0.128531     0.496194     0.910348
0.063600    -0.713445    -0.396547    -1.430181     0.725406     0.667216     0.488481
0.064800    -2.195389    -0.455522    -0.171403    -0.038805     1.171608    -1.078082
0.066000    -1.158762     0.473303     0.727728     0.102306    -0.312915    -1.384039
0.067200     0.387064     0.394653    -0.386397    -0.543842    -0.298663     0.104516
0.068400    -0.152096     2.015151    -0.680364    -0.363285    -0.755204    -0.348111
0.069600     0.148443     1.342782    -0.412557     0.627694    -0.001847     0.244575
0.070800     0.043022    -0.139147    -0.944295    -0.942228     0.022731     0.582574
0.072000    -0.683234     0.223967     1.371127     1.366946    -0.926815    -2.506894
0.073200    -1.031307    -1.526006     0.570583    -0.509507    -0.448009     0.367123
0.074400     0.020254     0.260100     1.003836    -0.240241    -1.655585     0.615793
0.075600     1.519422    -0.229874     0.301140    -0.753449     0.786545    -0.319513
0.076800    -0.686883     0.758345     0.480444    -0.299413     0.385053     0.699758
0.078000    -0.200098     0.570890     0.433528    -0.375045     0.565339    -0.487716
0.079200    -0.950066    -0.396487    -0.433349    -1.021807     0.985577    -0.645008
0.080400    -1.169259     0.033819     1.093017    -0.777675    -1.049449     0.001741
0.081600     0.405240    -0.426287     0.556451    -1.067501    -1.119230     0.104984
0.082800     1.227760     0.833939    -0.123155    -0.494880     1.251601    -1.341165
0.084000     0.188037     0.338535    -0.114999    -0.745470     0.618312     0.123717
0.085200     1.175415     0.214516     0.217818    -0.049756    -0.710793    -0.257935
0.086400    -0.055156     0.668431    -0.256327     0.275720     0.238652    -0.335234
0.087600     1.146369    -0.525723    -0.317976    -0.440648    -0.464864     0.985349
0.088800    -0.529193     0.500649     0.322827     0.441494    -0.260064     0.161894
0.090000     0.098029    -0.556586     1.142422    -0.552005     0.242662     0.523276
0.091200    -1.756728    -0.850428    -0.811406     0.571245     0.894987    -0.274509
0.092400    -0.428211    -0.408040    -0.105847     0.201665     0.705541    -0.411401
0.093600    -1.709876     1.048716     0.434339     0.973676    -0.737368    -1.523085
0.094800    -0.578548     0.496347    -0.106761     0.386230    -0.732545     0.949407
0.096000     0.507280     0.019146    -0.644162    -0.767728    -0.997108    -1.486852
0.097200     0.611165     0.500467     0.589532    -0.572145    -0.996513     1.013748
0.098400     0.445427    -1.035412     0.338698     0.356829     0.572483    -0.660809
0.099600    -0.956179    -0.125993     0.348911     1.420050     1.149883    -0.086189
0.100800     0.001572    -0.502918     0.398211    -0.335730    -0.091319     0.147388
0.102000    -0.841563    -1.379678     1.236069    -0.685173     0.563481    -1.041087
0.103200     0.058401     0.720808     0.411782     0.336827    -0.846557     0.318316
0.104400    -0.380654     0.305881    -1.386637     0.119894     0.741714    -0.083841
0.105600     0.370411     0.002354     0.124618    -0.844503    -0.095956    -0.035662
0.106800     1.395033    -1.191489    -0.544281    -0.397541     0.157467    -0.676066
0.108000    -1.785855     0.627386    -0.311600     0.324289    -0.458483    -0.135990
0.109200    -1.046253    -1.008468    -0.215065    -1.008532     0.400506    -0.975121
0.110400     0.470338     0.236376    -0.087130    -0.401915    -0.339004    -0.375765
0.111600     0.269988     0.244245     0.871592     0.154639     0.575622     0.332780
0.112800    -0.287611    -0.124209    -0.139982    -0.207530    -0.818464    -0.432615
0.114000     0.169680     0.033596     0.498918    -0.003074    -0.343265    -0.781141
0.115200    -0.090670     0.657487     0.151315     0.931643     0.546893    -0.642796
0.116400     0.671537    -0.238610     0.822693     0.252860    -0.152151     1.006692
0.117600    -0.362426     0.827994     0.030745    -0.471555     0.074944     0.991472
0.118800    -0.254367    -0.143581    -0.103012     0.709074     0.604920     0.677968
0.120000    -0.686911    -1.082987     0.122972    -0.472469     0.056521     1.114530
0.121200    -0.132981     0.228137    -0.675341    -0.031246    -0.279417     0.012445
0.122400     1.081979     0.096526     0.061907     0.453474     0.389932    -0.153283
0.123600    -0.215639    -0.816945     0.553111    -1.133008     0.212155    -0.681730
0.124800    -0.115853     0.490207    -0.201320    -0.462176     0.317538     0.437198
0.126000     1.163896    -0.482161    -0.732257    -0.232318     0.205028     0.672589
0.127200     0.952559     0.367500    -0.394013     0.359153     0.230682    -0.032398
0.128400     0.329561    -0.637166    -1.103715     0.391595     0.246018     0.514293
0.129600    -1.245405    -0.022403    -0.181852    -0.353027    -0.937657    -0.102044
0.130800    -0.300437    -0.890301     0.506584    -1.176161     0.169757    -0.751668
0.132000     1.298325    -0.614497     0.092019     0.494369    -0.045963     0.698886
0.133200     0.488719     0.650993     0.346151    -0.834507    -0.143399     0.564113
0.134400     1.141838     0.259889    -0.808386     0.536339    -0.553904     0.200526
0.135600     0.651422    -0.553162     0.695110     0.071674    -0.087999     0.339639
0.136800     0.236447    -0.020344    -0.104370     0.589515     0.057300    -0.442235
0.138000    -0.670788    -0.049872    -0.335206     0.334828    -0.083202    -0.505458
0.139200    -0.055894     0.276154    -0.306798    -0.709795    -0.309953     0.863229
0.140400    -0.179731    -0.148053    -0.442623    -0.072696     0.301392    -0.527696
0.141600     0.287259    -0.176508     0.827821     0.733806     0.153040    -0.091236
0.142800    -0.160852    -2.216496     0.044063    -0.101805    -0.044301     0.033676
0.144000    -0.511160     0.738737    -1.171947     0.489434     0.410075    -0.407129
0.145200    -0.555453    -0.334686     0.147951     0.326010     0.131869    -0.027811
0.146400    -0.024068    -0.568684    -0.307471     0.898689    -0.793047    -0.535722
0.147600    -0.382308     1.520718     0.496091    -0.939262     0.053724     0.855162
0.148800     0.420099    -0.102085     0.002399    -0.047052    -0.598918     0.206684
0.150000     0.407297    -0.642045    -0.015861     0.347790    -0.263213     0.418283
0.151200     0.827832    -0.022617    -0.037350    -0.104485    -0.201808    -0.072092
0.152400    -0.343579    -0.093837    -0.699219    -0.662415     0.151158    -0.094580
0.153600     0.682990     0.173230     1.061217    -0.176351    -0.141840     0.355911
0.154800    -0.164039    -1.422099    -0.303481    -0.006900    -0.164372     0.226295
0.156000    -0.552123    -0.470598     1.172271     0.601199     0.453355    -0.669205
0.157200    -0.454069     0.457068     0.789701     0.453124     0.528701     0.440218
0.158400     1.362528    -0.370442     0.536610    -0.020405    -0.504206    -0.822287
0.159600    -0.865642    -0.454995     0.808728    -0.022557     0.496685     0.620293
0.160800    -0.155535    -0.783155    -0.128409    -0.102281     0.266537    -0.837412
0.162000     0.699756     0.053747    -0.034268    -0.556334     0.636494     1.229832
0.163200    -0.155316     0.443910    -1.081271     0.595124    -0.116526    -0.485871
0.164400    -0.030016    -0.167210     0.095219    -0.253891    -0.823951    -0.173731
0.165600    -0.279306     0.549159     0.044454     0.009471    -0.859684     0.544123
0.166800    -0.137380     0.630419    -0.018370    -0.481110    -0.595313     0.217976
0.168000     0.728624     1.187417    -0.465394     0.060178     0.417708    -0.242926
0.169200    -0.165406     0.484225    -0.303400     0.372439     0.334812     0.350803
0.170400    -0.631580    -0.289569    -0.401261     0.454033    -0.304053    -0.210597
0.171600    -0.623590    -0.290714     0.618544    -0.024040     0.667674    -1.591823
0.172800    -0.263417     0.420871     0.594444    -0.094819    -0.235583     0.445733
0.174000     0.959026    -0.021502    -0.016926    -0.384696    -0.573164    -0.254667
0.175200     0.072967     1.107533     0.007848    -0.303554     0.279544    -0.139180
0.176400     0.461936     0.304728    -0.336050     0.474025    -0.036081    -0.651840
0.177600     0.267653     0.532102    -0.184925    -0.047638    -0.192524     0.774449
0.178800    -0.961565     0.278991     0.607482    -0.262503     1.052173     0.710460
0.180000    -0.749789     0.147699     0.460946     0.102388    -0.326140     0.309617
0.181200     0.074181    -0.148853    -0.443217    -0.217043    -0.929499    -0.457630
0.182400     0.759509    -0.396141    -0.535166    -0.145482     0.191249    -0.143549
0.183600     0.841812     0.977438    -0.668415     0.761315     0.420205     0.804952
0.184800     0.326967    -0.099209     0.509859    -0.981598     0.999186    -0.373051
0.186000    -0.213057     0.684774    -0.056998     0.617299     0.268680     0.634955
0.187200    -0.191052    -0.139229    -0.000225    -1.152123    -0.660068    -0.349591
0.188400    -0.608494    -0.142690     0.340304    -0.697906    -0.469510    -0.652514
0.189600     0.224319     0.189751    -0.425391    -0.137614    -0.802348    -0.271286
0.190800    -0.342587     0.438050     0.072170    -0.423555    -0.696188    -0.445769
0.192000     0.230832    -0.206237     0.022261    -0.163719     0.460708     0.045081
0.193200     0.294428     0.358225     0.572052    -0.152743    -0.050110     0.095210
0.194400    -0.562589    -0.320605    -0.069408     0.221015     0.274122    -0.125885
0.195600     0.203437     0.193343    -0.839895    -0.006707     0.094664    -0.246846
0.196800    -0.381977    -0.597596    -0.538106    -0.356043     0.055493     1.373538
0.198000    -0.422414     0.678083     0.771343     0.084470     0.410643     0.024319
0.199200     0.494005    -0.516781    -0.473009     0.760882     0.426918     0.480090
0.200400     0.759449     0.170551     0.100801     0.538554    -0.429996    -0.339845
0.201600     0.178991     0.731843    -0.896662     0.077415    -0.535917     0.361678
0.202800     0.552128    -0.005115    -0.142379    -0.085259     0.907715    -0.631719
0.204000    -0.144556    -0.106495     0.627571     0.752568     1.034078    -0.439417
0.205200    -0.024634     0.357242     0.005392    -0.014912     0.467773    -0.410254
0.206400    -1.177319     0.161568     0.667488     0.156343     0.047037    -0.537403
0.207600    -0.073020     0.374434     0.027794     0.333650    -0.562576    -0.017595
0.208800    -0.056416    -0.139330     0.482118    -0.296443    -0.633424     0.179731
0.210000     0.162920     0.431762    -0.721977     0.118826     0.652451     0.478183
0.211200     0.714925     0.322570     0.051683    -0.125297    -0.479837     0.287231
0.212400    -0.406067    -0.684410    -0.425473     0.328006     0.323761     0.237324
0.213600    -1.104048    -0.101241    -0.296087     0.018154    -0.793455    -0.685440
0.214800    -0.826603     0.498651     0.556181    -0.725062    -0.337090     0.437736
0.216000    -0.543440     0.507730    -0.095000    -0.194389     0.771599     0.281011
0.217200     1.406644     0.543792     0.282502    -0.509415    -0.116866    -0.480947
0.218400    -0.441704    -0.438338    -0.421904    -0.772601     0.605153     0.646875
0.219600     0.580820    -0.147898    -0.475142     0.032141    -0.442268     0.213127
0.220800     0.070846    -0.517789    -0.128524     0.240289     0.488160     0.457851
0.222000     0.055730    -0.137496     1.017165    -0.829789    -0.545666    -0.000385
0.223200     0.588351    -0.883722     0.290916    -0.274342    -0.081011    -0.136963
0.224400     0.486235    -0.052190     0.155718     1.046577    -0.497437    -0.445437
0.225600     0.410535    -0.317462     0.321170    -0.608258     0.511768     0.851877
0.226800     0.499652    -0.634649     0.175109    -0.359266     0.152507    -0.736574
0.228000     0.095895    -0.010775     0.513664    -0.104705     0.236465    -0.354026
0.229200    -0.235648     0.037465    -0.329996    -0.513228     0.157196    -0.434717
0.230400    -0.136948    -0.561135    -0.024168     0.374106     0.629354    -0.080851
0.231600     0.124545    -0.225970    -0.076723     0.077617     0.286066     0.786851
0.232800    -0.360516     0.194690    -0.376420    -0.034075    -0.320009     0.339936
0.234000    -0.447626    -0.304954     0.651950     0.562369    -0.128773    -0.346507
0.235200     0.814139     0.123427     0.078568    -0.744228     0.361714    -0.514992
0.236400    -0.567934    -0.023635     0.131567     0.588500    -0.394243     0.298432
0.237600     0.186950     0.448566    -0.246426    -0.213796     0.576747    -0.230672
0.238800     0.107568     0.088515    -0.216604     0.548998    -0.675117     0.577566
0.240000     0.071930    -0.118572     0.242435     0.059943     0.086882     0.204816
0.241200    -0.273781    -1.210592     0.880134    -0.440446    -0.173824    -0.050391
0.242400    -0.794440     0.416172     0.582483    -0.235239    -0.483887    -0.089127
0.243600     0.190672     0.052324    -0.544025    -0.349399     0.083646     0.244190
0.244800    -0.239654    -0.035605     0.113482    -0.467319    -0.615518    -0.072454
0.246000     0.529271     0.027441    -0.530146    -0.959589    -0.013244     0.339746
0.247200     0.037413     0.090091     0.386600    -0.414110    -0.564585    -0.021006
0.248400    -0.097005    -0.494168    -0.082101    -0.029402     0.097722    -0.781582
0.249600     0.172366     0.622632    -0.350117     0.807517    -0.695275    -0.468178
0.250800     0.180455     0.387168    -0.037900     0.507564    -0.368492     0.717071
0.252000     0.307990     0.231016     0.163399    -0.126264     0.157670     0.325466
0.253200    -0.050735     0.052990    -0.484971    -0.595579    -0.907699     0.040696
0.254400    -0.460110     0.468106     0.749773     0.485986    -0.207201    -0.426065
0.255600     0.007177     0.360566    -0.261458     0.043186    -1.030630    -0.424989
0.256800    -0.531353     0.372086     0.316188    -0.105929    -0.601839    -0.212773
0.258000    -0.239542     0.487589     0.043118    -0.414310     0.010401     0.007419
0.259200     0.042258    -0.789538    -0.442990    -0.553119    -0.566114    -0.499562
0.260400    -0.145115     0.192813     0.033321     0.144931    -0.427339    -0.012853
0.261600     0.298701    -0.419091    -0.068001     0.356754     0.337298    -0.186831
0.262800    -0.349833    -0.575851     0.671289     0.620887    -0.723376     0.142970
0.264000    -0.611168     0.185821     0.470301    -0.361839    -0.205410     0.233906
0.265200    -0.100673    -0.077753    -0.815462    -0.133436    -1.049721     0.055072
0.266400     1.041689    -0.469991    -0.038295     0.049243    -0.005925     0.140614
0.267600    -0.477417    -0.756688    -0.363061     0.258739     0.218958     0.052516
0.268800    -0.046352    -0.654600    -0.811744     0.609712     0.102317     0.041072
0.270000    -0.473522    -0.209267    -0.127699    -0.418315    -0.004095    -0.488199
0.271200     0.252734    -0.433219     0.293328     0.093968    -0.137138     0.375149
0.272400    -0.048071    -0.125660     0.571843    -0.139850    -0.036532     0.058150
0.273600    -0.508134    -0.100586    -0.680644    -0.548160    -0.371397    -0.062211
0.274800    -0.856384    -0.121872     0.206697     0.401392     0.055229     0.738806
0.276000     0.383455     0.007780    -0.011813    -0.130399    -0.117816    -0.288517
0.277200     0.505568     0.078794    -0.116064     0.009066    -0.145707     0.010339
0.278400    -0.236073     0.235986     0.055444     0.337224     0.402441     0.534198
0.279600     0.151380    -0.468833     0.341773    -0.174693     0.866058     0.010751
0.280800    -0.165979    -0.241579    -0.034148    -0.683677    -0.001606    -0.195762
0.282000    -0.219591     0.284351    -0.271145     0.119922    -0.708050    -0.316183
0.283200     0.129958    -0.235745     0.007919     0.425752    -0.323410     0.085033
0.284400     0.016710    -0.381014     0.589220     0.204820     0.058503    -0.142570
0.285600     0.175948    -0.192085     0.467768    -0.475045     0.804986     0.008115
0.286800    -0.421549     0.006443     0.297299    -0.528464    -0.320005     0.095056
0.288000    -0.231894    -0.081585    -0.434969     0.389532     0.269536     0.909801
0.289200     0.225098     0.111980     0.105424     0.184561     0.080637    -0.205612
0.290400     0.797421    -0.474376     0.167826    -0.369558    -0.099068    -0.023750
0.291600     0.084208     0.291699     0.098496     0.287983    -0.524885     0.125338
0.292800    -0.038921     0.330380    -0.107885     0.164502    -0.304706    -0.779814
0.294000    -0.441650    -0.471455    -0.189158     0.124246     0.277675    -0.345635
0.295200    -0.264585    -0.262138    -0.157972    -0.375324    -0.246331     0.286808
0.296400    -0.269663     0.205593     0.565469     0.085582     0.058672    -0.227500
0.297600     0.173883    -0.502399     0.091538    -0.746909     0.269859     0.029705
0.298800     0.212945     0.035613    -0.075919    -0.506301    -0.276309     0.362730
0.300000     0.222517     0.105539     0.086108     0.268559    -0.013529     0.102846
0.301200    -0.017662     0.636621     0.396465     0.350544    -0.472628    -0.307320
0.302400    -0.241628    -0.252478    -0.491251     0.117061     0.931806    -0.270429
0.303600     0.668247    -0.313354     0.575684     0.714359     0.555925     0.518382
0.304800     0.303526     0.695821     0.257251     0.186674    -0.023751     0.221201
0.306000    -0.176052    -0.302194    -0.046481     0.169563    -0.443320     0.336065
0.307200     0.399692     0.206995    -0.304080    -0.071190     0.310136     0.017103
0.308400    -0.497229     0.885381     0.169444     0.247661    -0.358226     0.134134
0.309600     0.023650     0.275007     0.698684     0.299073    -0.167857     0.347544
0.310800     0.453533     0.030381    -0.130873     0.483562    -0.827461     0.129956
0.312000    -0.456918     0.089695     0.307488    -0.053774    -0.286752     0.163139
0.313200     0.425901     0.151695    -0.076574     0.081870    -0.343164     0.072232
0.314400     0.228074     0.364900    -0.295339     0.044043     0.128500    -0.163550
0.315600     0.177634     0.667543     0.003095    -0.192749    -0.520449    -0.037938
0.316800    -0.038351     0.607440     0.205483     0.583014     0.214150     0.388884
0.318000    -0.126050     0.242661     0.352834     0.231237     0.195319     0.354992
0.319200    -0.194471    -0.387103    -0.464307     0.135087     0.404541    -0.478258
0.320400    -0.062666     0.069057    -0.663471    -0.359318     0.053349    -0.240644
0.321600    -0.086970     0.175811     0.182437     0.143820    -0.367536     0.123707
0.322800     0.464357     0.162051     0.467842     0.197775     0.027408    -0.301430
0.324000     0.553650     0.054246     0.007632    -0.441305     0.280503     0.257223
0.325200     0.086344    -0.056217     0.316328    -0.116891    -0.245427    -0.686952
0.326400     0.324328    -0.219643     0.026856    -0.135490     0.216044    -0.283619
0.327600     0.133062     0.487335     0.288328    -0.608489    -0.622719    -0.426352
0.328800     0.158521     0.201173    -0.049639     0.418280    -0.789312    -0.203736
0.330000     0.271421     0.045328    -0.487973    -0.102535    -0.066840    -0.120139
0.331200     0.502985     0.315133    -0.252595    -0.125130     0.554754     0.084090
0.332400     0.164505     0.094170    -0.341077    -0.073555     0.200730    -0.275574
0.333600     0.082822    -0.066323     0.466443     0.014711     0.453613    -0.446782
0.334800    -0.186439     0.103651     0.359121    -0.000874    -0.112070     0.200041
0.336000    -0.298589    -0.434591     0.253190    -0.050170    -0.267616     0.803431
0.337200     0.253514    -0.100707    -0.096654     0.247034     0.637478    -0.241206
0.338400     0.048155    -0.425995     0.121823     0.016289     0.031000    -0.618254
0.339600     0.211407     0.264649    -0.823371    -0.141137    -0.118808     0.097486
0.340800    -0.106531     0.065964    -0.316675     0.362702     0.173591    -0.357610
0.342000     0.190799     0.050975    -0.265867     0.162597     0.338968     0.456509
0.343200    -0.276834    -0.003184     0.562080    -0.268037     0.202423     0.306113
0.344400    -0.002481    -0.301970    -0.274179    -0.439916    -0.227096     0.165769
0.345600     0.476524    -0.122955     0.082331     0.073413    -0.825739    -0.275921
0.346800     0.134414    -0.034570     0.003573     0.388735    -0.187367     0.248023
0.348000     0.168931    -0.119445    -0.276728    -0.093100    -0.094706    -0.390740
0.349200    -0.289741     0.321408     0.048604     0.298373    -0.064855    -0.154368
0.350400     0.516206    -0.311933     0.255563     0.225004     0.025027    -0.219391
0.351600     0.144833    -0.187792    -0.338170     0.436528    -0.100690    -0.224990
0.352800    -0.294881    -0.239601     0.420463     0.687761     0.197102     0.028094
0.354000    -0.380273    -0.095208    -0.322266     0.006414    -0.123440    -0.117167
0.355200    -0.182916     0.132793     0.233327     0.178822     0.163871     0.291362
0.356400    -0.373824     0.087800    -0.543407     0.192623     0.101097    -0.133808
0.357600    -0.763321    -0.161467    -0.027839    -0.101528     0.107820    -0.032567
0.358800    -0.203104    -0.334162     0.123910    -0.198370     0.635477    -0.718725
0.360000    -0.127716     0.587565    -0.127407    -0.296430     0.065826     0.169306
0.361200     0.402393     0.140626    -0.218172    -0.165793     0.123138     0.271275
0.362400     0.458810    -0.250062    -0.445725     0.328534     0.255888    -0.255627
0.363600    -0.137580     0.216247    -0.151584    -0.165310    -0.055796    -0.219480
0.364800     0.340008    -0.395450    -0.056435     0.077983    -0.165187    -0.088185
0.366000    -0.153946     0.039314    -0.557029     0.256794    -0.267202    -0.239616
0.367200     0.163114    -0.547260     0.369044    -0.101397     0.317438    -0.383429
0.368400     0.415592    -0.222704    -0.161915    -0.793922     0.275980     0.104020
0.369600     0.033401    -0.303890    -0.473036    -0.093404    -0.184170     0.424376
0.370800     0.284735    -0.027667     0.185270     0.364917     0.135858    -0.196112
0.372000    -0.020534     0.214302     0.346251     0.387853    -0.147211     0.086676
0.373200    -0.379702     0.254782    -0.109776     0.129493     0.139164    -0.004028
0.374400    -0.472035     0.095487    -0.054412     0.059974     0.159996    -0.121356
0.375600     0.186074    -0.357411     0.363438     0.101911     0.128846     0.042744
0.376800     0.127951    -0.040117    -0.027213    -0.327358    -0.044714    -0.225310
0.378000    -0.045817     0.231877     0.085060     0.186977     0.188262    -0.143660
0.379200     0.263619    -0.418833    -0.022052    -0.276317     0.041462     0.178882
0.380400     0.160551     0.214498     0.066286     0.211488    -0.151275     0.287303
0.381600    -0.802345     0.188546     0.198927    -0.686649     0.016086    -0.489911
0.382800     0.071792     0.492782    -0.336006    -0.209933    -0.154525     0.107722
0.384000    -0.032045    -0.306831    -0.319257    -0.164240    -0.484946     0.291749
0.385200    -0.132248     0.258578    -0.176389    -0.130172    -0.051373    -0.185667
0.386400     0.121061     0.234151     0.337220    -0.128829     0.149423    -0.188970
0.387600    -0.241184     0.202892    -0.020889     0.113017    -0.119035     0.774278
0.388800     0.114342    -0.331508     0.156438     0.426065     0.010430    -0.050509
0.390000     0.542255    -0.447315    -0.422592    -0.286483    -0.132280    -0.117823
0.391200     0.133344     0.181689     0.155533     0.114513     0.262042    -0.068686
0.392400     0.141762     0.160373    -0.130663    -0.077165    -0.100213     0.546281
0.393600     0.125741     0.300952    -0.413043     0.227157    -0.058014     0.171530
0.394800     0.275859     0.108112     0.197366    -0.314593     0.281311    -0.807633
0.396000    -0.153961     0.269221     0.257118     0.104961    -0.533130    -0.390202
0.397200    -0.506027    -0.418484     0.511275     0.449626     0.480760     0.077935
0.398400     0.133915     0.019225    -0.201435    -0.307165    -0.375669    -0.315989
0.399600    -0.041276     0.302840    -0.230510     0.157737     0.171111     0.379954
0.400800     0.252401    -0.053595    -0.278130     0.010312    -0.069543     0.175473
0.402000     0.142514     0.013543    -0.068295    -0.075815    -0.437953     0.293491
0.403200     0.199693     0.251079     0.063157     0.390722     0.009969     0.135526
0.404400     0.411493     0.374909     0.165960    -0.181806     0.460060    -0.314386
0.405600     0.274441    -0.027693    -0.199834     0.411313     0.348723     0.104732
0.406800     0.056552    -0.234520     0.274747    -0.200551     0.073609     0.105315
0.408000     0.301488     0.049503     0.117233    -0.121750     0.661227     0.126475
0.409200    -0.439727     0.007453    -0.154007    -0.206488     0.004108    -0.113808
0.410400    -0.480297    -0.340919     0.090415     0.044133     0.420783     0.144134
0.411600     0.327709     0.157442    -0.320784    -0.295470     0.131504     0.104788
0.412800    -0.190923     0.160455     0.033303    -0.066807     0.165528     0.317663
0.414000    -0.067694     0.095878     0.089744     0.266304     0.247059     0.152863
0.415200     0.034095     0.415752     0.245455    -0.039688     0.001981    -0.066355
0.416400     0.429129    -0.320345    -0.391974     0.120584    -0.086821    -0.338532
0.417600    -0.179158     0.159751    -0.347668    -0.030089     0.001882    -0.029308
0.418800    -0.096921    -0.124911    -0.185517     0.243746    -0.107304     0.038684
0.420000    -0.179453    -0.435559     0.068385    -0.068927    -0.095508    -0.033479
0.421200    -0.168343     0.016400    -0.125635    -0.178510     0.194346     0.155204
0.422400     0.140064    -0.004286     0.184881     0.643737    -0.203488     0.096598
0.423600     0.340294     0.094354    -0.448399     0.098422    -0.039261    -0.028435
0.424800     0.246679    -0.141480    -0.374295    -0.294203     0.157012     0.186611
0.426000     0.027721    -0.108630    -0.033505    -0.286948     0.063970     0.005702
0.427200     0.155699    -0.277418    -0.033326     0.019305    -0.033832    -0.065207
0.428400    -0.058692     0.536135     0.225491     0.198137    -0.246203     0.117868
0.429600     0.023762    -0.007984     0.133513     0.280485    -0.021689    -0.074973
0.430800     0.114716    -0.052293     0.294281     0.353464     0.225663     0.453128
0.432000    -0.137260    -0.118897     0.380761    -0.261641    -0.093929     0.245655
0.433200    -0.007890     0.164251     0.200799     0.045928    -0.014858    -0.114388
0.434400     0.009532    -0.090316    -0.106506     0.106152    -0.090175    -0.076016
0.435600     0.268111    -0.089639     0.092563    -0.284403     0.034159    -0.044721
0.436800     0.070657     0.529020     0.135190     0.113673    -0.040967     0.151495
0.438000     0.484358    -0.041611     0.073493     0.210353    -0.131107    -0.174742
0.439200    -0.109590     0.065474    -0.286617    -0.361395     0.177109    -0.270169
0.440400    -0.030012    -0.226628    -0.006522    -0.044771     0.244355     0.119629
0.441600     0.077371    -0.183518    -0.232977    -0.119076    -0.190874    -0.114006
0.442800     0.127562     0.080749    -0.172044     0.017466     0.234819    -0.008276
0.444000    -0.302107     0.242757     0.266441    -0.268691    -0.511770    -0.138153
0.445200     0.240566    -0.004750    -0.245024    -0.459843    -0.174959    -0.275607
0.446400     0.248704    -0.097331     0.135626    -0.223113    -0.124241    -0.169463
0.447600     0.051281    -0.335488    -0.147105    -0.065817    -0.089851    -0.536445
0.448800    -0.068331    -0.152141     0.120892     0.678700     0.002932    -0.103910
0.450000    -0.083450    -0.039790    -0.109930    -0.199344     0.016429    -0.032627
0.451200    -0.134679     0.167284    -0.201851     0.014768     0.387879    -0.173018
0.452400     0.261492    -0.258873     0.223524    -0.339647     0.051642    -0.037382
0.453600     0.068860    -0.284617    -0.443157     0.053963    -0.010044    -0.156735
0.454800     0.029837    -0.184963     0.483267    -0.186026     0.330790     0.134584
0.456000     0.048040     0.226779    -0.009273    -0.391164     0.026446    -0.320115
0.457200     0.158933     0.345762    -0.079489     0.066802     0.315012     0.348993
0.458400    -0.177822     0.465928     0.158001    -0.148172    -0.228076     0.203791
0.459600     0.274792    -0.057814     0.227347     0.005776    -0.314057     0.149957
0.460800     0.290559    -0.288272     0.334642    -0.177669     0.044789    -0.443816
0.462000    -0.128390    -0.023817    -0.100006     0.219334    -0.348953    -0.077386
0.463200     0.243356    -0.018156    -0.063581     0.139638    -0.334843    -0.099099
0.464400     0.133199     0.031490     0.135360    -0.304623     0.307672    -0.352471
0.465600     0.072879    -0.193624    -0.009164     0.179927    -0.016695     0.124233
0.466800    -0.158380     0.042302     0.116696    -0.060577     0.107822    -0.169031
0.468000     0.436772     0.377741     0.302914     0.147822     0.094097    -0.113892
0.469200    -0.027344    -0.198733     0.227195    -0.018802     0.082112     0.083634
0.470400    -0.141664     0.470316    -0.048911     0.056143     0.435806     0.073463
0.471600    -0.076220     0.092796     0.062553     0.098476     0.335961     0.170235
0.472800     0.249780     0.336613     0.063452     0.308084     0.004509    -0.050533
0.474000     0.157249     0.073223     0.319270     0.024464    -0.037208     0.243097
0.475200     0.028432     0.214494     0.134486     0.193421     0.409591     0.324363
0.476400     0.140773     0.104680     0.133349     0.071494     0.122288    -0.089223
0.477600     0.034966    -0.359961    -0.097937    -0.194360     0.507598     0.380224
0.478800    -0.165177     0.268194    -0.003396     0.387328    -0.058369     0.159547
0.480000     0.215595     0.091093     0.415263    -0.136642    -0.503614    -0.145856
0.481200    -0.307839     0.487730    -0.123135    -0.124604     0.143504    -0.209530
0.482400     0.100619    -0.177679     0.138957     0.228546     0.314965     0.138506
0.483600     0.147223    -0.052304     0.233963     0.023270    -0.171494    -0.286790
0.484800    -0.304019     0.069562    -0.017946    -0.255537    -0.312530    -0.297992
0.486000    -0.269789     0.054701    -0.004663     0.202885     0.250401     0.294712
0.487200    -0.168376     0.108548     0.105061    -0.131253    -0.284104    -0.037762
0.488400     0.143001    -0.018562     0.091288    -0.121762     0.425646    -0.239013
0.489600    -0.213200     0.001540    -0.096094    -0.220241     0.213787    -0.055628
0.490800     0.627480     0.106563     0.071195     0.110023     0.365661     0.091053
0.492000     0.153615     0.093185    -0.167453    -0.280468     0.202483    -0.029005
0.493200    -0.075240     0.028394    -0.078653     0.057295     0.078359    -0.004398
0.494400    -0.285880     0.352288     0.184149     0.157542    -0.096307     0.274913
0.495600     0.212686     0.275430    -0.156101    -0.074189    -0.206730    -0.342822
0.496800    -0.269514    -0.334562    -0.040661    -0.066947     0.168010     0.272064
0.498000    -0.012344     0.156224    -0.113800     0.253086     0.185408     0.133066
0.499200    -0.082445     0.004646     0.267196    -0.141452     0.049954    -0.087479
0.500400     0.173256     0.118540    -0.230647     0.163180    -0.146489    -0.644797
0.501600     0.083847    -0.211948     0.172209    -0.117280    -0.210419    -0.508103
0.502800    -0.061213    -0.191421     0.014106    -0.178061    -0.054929    -0.165633
0.504000    -0.240927    -0.120411     0.343285     0.119919     0.013782     0.300355
0.505200     0.084106     0.087452    -0.194661    -0.312012    -0.221231     0.300236
0.506400    -0.006310     0.206888     0.034651     0.396907    -0.029138    -0.208960
0.507600     0.401136    -0.019966    -0.133018     0.152513    -0.070675    -0.178388
0.508800    -0.097900     0.080575     0.250925     0.018481     0.016796    -0.105360
0.510000     0.059473    -0.139603    -0.102094    -0.146171    -0.279844     0.158729
0.511200     0.194130     0.018550    -0.261896    -0.053111     0.000103    -0.206784
0.512400     0.219219     0.350041    -0.155630    -0.178187    -0.000684    -0.016292
0.513600     0.223329     0.014907     0.018583    -0.013909    -0.126466     0.047206
0.514800     0.354708     0.248233    -0.184760     0.065509     0.141469     0.336149
0.516000     0.137629     0.280578    -0.040119     0.136926     0.159579     0.229683
0.517200    -0.285543     0.117130     0.281228    -0.122426    -0.046274     0.188600
0.518400    -0.286679     0.165482    -0.504979    -0.036074     0.085196     0.089105
0.519600     0.175172     0.042732     0.333201     0.084878    -0.072572    -0.117902
0.520800     0.177571    -0.214642    -0.254804    -0.170579    -0.270787     0.237193
0.522000     0.133321     0.037986    -0.032626     0.219827    -0.161305     0.271232
0.523200     0.238507    -0.046759    -0.081112    -0.283229    -0.009859     0.214871
0.524400     0.066117     0.229011    -0.133759     0.281189    -0.138810    -0.011061
0.525600    -0.092277    -0.067015     0.291446     0.025850    -0.070296    -0.122923
0.526800    -0.109763     0.196333     0.053336     0.334584    -0.082225     0.263260
0.528000     0.185536    -0.186121    -0.001052    -0.147547     0.184195     0.095922
0.529200    -0.385497     0.137351     0.158779    -0.087724    -0.087145    -0.166144
0.530400     0.057822     0.059631    -0.401582     0.306151    -0.101501     0.408582
0.531600     0.047104    -0.141760     0.108424    -0.067506     0.209926    -0.058154
0.532800     0.279699    -0.084697    -0.136110     0.061034     0.158392    -0.154743
0.534000     0.059524     0.031201     0.012559     0.077793     0.056653     0.160530
0.535200    -0.352949     0.317506     0.037952    -0.068983    -0.151302     0.070148
0.536400    -0.170805     0.023332    -0.086775    -0.211500    -0.266582     0.091539
0.537600     0.099225    -0.171491     0.222243     0.141267     0.209318     0.060469
0.538800     0.075633     0.093104    -0.012577    -0.069785     0.185725    -0.210631
0.540000    -0.012302     0.213143    -0.110147     0.055425     0.176659     0.295355
0.541200     0.110318     0.176888    -0.060117    -0.029168    -0.095170    -0.118004
0.542400    -0.032474     0.283914    -0.000074     0.006013     0.261808     0.031880
0.543600    -0.173758     0.205035     0.144240     0.153668    -0.161022    -0.021014
0.544800     0.081505     0.053280     0.288168     0.095763     0.240979    -0.047036
0.546000    -0.037349    -0.124897     0.160381     0.193140     0.033103    -0.102001
0.547200    -0.064408     0.155698     0.162764    -0.064360    -0.001958     0.126967
0.548400     0.142852     0.429853    -0.196024     0.032803    -0.034358     0.072474
0.549600     0.143426     0.150589     0.009194     0.142393     0.193170    -0.361357
0.550800    -0.100918    -0.062909     0.103699    -0.083834     0.051535     0.253256
0.552000    -0.104425     0.299130     0.213775    -0.327989     0.063574    -0.061299
0.553200    -0.139203     0.034647     0.043194    -0.194147    -0.041523    -0.331761
0.554400     0.373689     0.054341    -0.194022     0.008557    -0.033772    -0.047339
0.555600    -0.277039     0.026144    -0.341568     0.146923     0.077831    -0.120455
0.556800    -0.002501     0.055455    -0.133651    -0.285294     0.028804    -0.176832
0.558000     0.314879     0.032168     0.024097     0.095431     0.097811    -0.095630
0.559200     0.149455    -0.052956     0.138012     0.257563     0.118645    -0.252500
0.560400    -0.066747     0.086055    -0.063190    -0.200145     0.117620    -0.114456
0.561600     0.185203     0.105949    -0.030061     0.105812     0.087658     0.147474
0.562800     0.277305     0.015617     0.088164     0.051195     0.359559     0.234205
0.564000    -0.011312    -0.133256     0.066085     0.052626     0.114162    -0.044214
0.565200    -0.046329     0.097614    -0.153245     0.122450     0.092167    -0.070080
0.566400    -0.149389    -0.058977    -0.128928    -0.160881     0.010665     0.200393
0.567600    -0.122119    -0.041774     0.133668    -0.181136     0.017490     0.196519
0.568800    -0.068874     0.034992     0.082373     0.131217    -0.004780    -0.066368
0.570000     0.157862     0.036281    -0.271112     0.053443    -0.251333    -0.006767
0.571200    -0.315087    -0.013698    -0.118418     0.033413    -0.153266    -0.273928
0.572400     0.070084     0.246672     0.163708    -0.253782    -0.139273    -0.109725
0.573600     0.076255    -0.050157    -0.261773     0.010485    -0.309687     0.255817
0.574800     0.098149    -0.214684     0.092346    -0.264746     0.254864    -0.048786
0.576000     0.173586    -0.160545     0.274620     0.027150     0.046760     0.150342
0.577200    -0.085170     0.031037     0.156404     0.171229     0.028803     0.061477
0.578400     0.006171     0.073710    -0.087819    -0.131361    -0.243932    -0.138444
0.579600    -0.029125    -0.153439    -0.021863    -0.056641    -0.081972    -0.086961
0.580800     0.062594     0.138160     0.079590    -0.051766     0.137852     0.253741
0.582000     0.161766     0.256125     0.201979    -0.052057    -0.128836    -0.130205
0.583200    -0.099154    -0.158346     0.265410    -0.028463     0.253415     0.182205
0.584400     0.196504     0.012210     0.100933     0.028773    -0.283283    -0.059718
0.585600     0.165678     0.009053    -0.074517    -0.166389    -0.279258    -0.020150
0.586800    -0.038364     0.084159    -0.146862     0.022744    -0.017785     0.235929
0.588000     0.022783     0.000944    -0.024121    -0.022658    -0.123734    -0.256290
0.589200    -0.070080     0.109055     0.032736    -0.062182    -0.068887     0.064595
0.590400    -0.130505     0.007899     0.070826    -0.002652    -0.086996     0.006666
0.591600     0.239777     0.092335     0.212747     0.022682    -0.203524    -0.070705
0.592800     0.007321     0.070951     0.004898    -0.279111     0.070220    -0.249497
0.594000     0.148131     0.139600     0.144187     0.091318     0.222205    -0.238737
0.595200    -0.047660    -0.056752     0.003278     0.049681     0.005706    -0.242212
0.596400     0.005209    -0.127753    -0.004507     0.167829    -0.139239    -0.112175
0.597600     0.205489     0.300619    -0.189465    -0.066330    -0.233373     0.108405
0.598800     0.196894     0.078030     0.144280     0.134489    -0.267074    -0.118736
0.600000    -0.012963    -0.142826     0.203295    -0.091779    -0.045860     0.180941
0.601200    -0.109916    -0.154305     0.011954     0.275697    -0.129451    -0.039238
0.602400     0.000517     0.006405     0.056844    -0.135178    -0.305094     0.091689
0.603600     0.204680    -0.022039    -0.190823    -0.039337    -0.140518    -0.070801
0.604800     0.174269     0.010749    -0.012103    -0.062326    -0.214630     0.117841
0.606000     0.065158    -0.362189    -0.105956    -0.015109     0.022358    -0.129005
0.607200    -0.116229     0.172198    -0.029406     0.049047    -0.019160     0.087213
0.608400     0.203683    -0.085605    -0.161488    -0.068107     0.130420     0.193665
0.609600     0.122037    -0.133589    -0.096323    -0.108665    -0.100391    -0.134328
0.610800     0.062111     0.008047     0.000021     0.161157    -0.137826    -0.291106
0.612000     0.094941    -0.047636     0.192387     0.144189    -0.100228    -0.151731
0.613200    -0.044377    -0.023485    -0.107280     0.091884    -0.192821     0.047552
0.614400     0.194063     0.123533    -0.098745     0.139266    -0.005481    -0.107934
0.615600    -0.203517    -0.054124    -0.282273     0.031928    -0.070904     0.061135
0.616800     0.014729    -0.171428     0.090369     0.109428    -0.106052    -0.223124
0.618000    -0.165574    -0.126255     0.006565     0.024396     0.045149     0.016238
0.619200    -0.071964     0.050547     0.151086    -0.113519    -0.173098     0.011759
0.620400     0.137974    -0.015210    -0.136768     0.087318     0.269051    -0.110716
0.621600    -0.089259     0.113564     0.140712     0.087655     0.023462    -0.112846
0.622800    -0.024285     0.167865     0.131548     0.176617     0.039644    -0.122133
0.624000     0.035942     0.016061    -0.018327    -0.063416    -0.092851     0.132856
0.625200    -0.144422    -0.132156    -0.084079    -0.207633     0.001133    -0.162044
0.626400    -0.110082     0.109357     0.161002    -0.292853    -0.082159     0.049565
0.627600     0.019404    -0.008118     0.020446    -0.025938     0.047333    -0.049923
0.628800     0.014575     0.221652     0.065727     0.036215    -0.018680     0.109514
0.630000    -0.045667    -0.133480    -0.098042     0.007773     0.040910     0.098208
0.631200    -0.140629     0.234591     0.190463    -0.215387     0.022469    -0.006679
0.632400    -0.072732    -0.140621    -0.021927    -0.495892     0.021782     0.017368
0.633600    -0.054082    -0.219090     0.061043     0.017512    -0.148094     0.173049
0.634800    -0.141484    -0.010402    -0.099031    -0.019169    -0.058742     0.155744
0.636000     0.108379    -0.036977     0.184522     0.200878    -0.037593    -0.041152
0.637200     0.098563     0.000595     0.033382    -0.211910     0.072694     0.073708
0.638400    -0.060217    -0.124028    -0.080718    -0.096942    -0.095795    -0.021458
0.639600    -0.206619    -0.055378    -0.193809    -0.041979    -0.137109    -0.088396
0.640800     0.074382    -0.042031     0.052882    -0.005513    -0.131619     0.207246
0.642000    -0.123263     0.299023    -0.036807    -0.024331     0.193615    -0.183437
0.643200     0.331251     0.042456     0.046183    -0.089483     0.013076    -0.078096
0.644400    -0.208859    -0.161799    -0.021017     0.043815    -0.021415    -0.160941
0.645600    -0.082905     0.203824    -0.126241    -0.027013    -0.027507     0.011916
0.646800    -0.063211     0.103614    -0.069812     0.128306     0.044763     0.219233
0.648000    -0.169069     0.072097     0.025854     0.164469     0.003866     0.023806
0.649200    -0.119127    -0.142600    -0.053733     0.283849    -0.087977    -0.117964
0.650400    -0.044927    -0.123090     0.159685    -0.012289    -0.168357    -0.052637
0.651600     0.013289    -0.011068    -0.190098     0.042327    -0.038423    -0.266236
0.652800     0.030402    -0.001770    -0.077029     0.152937    -0.181304     0.198987
0.654000    -0.141572    -0.060434     0.217570     0.059835     0.103518    -0.198260
0.655200    -0.135622     0.076760    -0.065951     0.015483    -0.041127    -0.169158
0.656400     0.202341    -0.014846    -0.117323     0.081730     0.007643     0.030597
0.657600     0.060745    -0.025951     0.052366    -0.144242    -0.081946     0.207975
0.658800     0.091910     0.125315    -0.084127     0.039496     0.088295     0.239768
0.660000    -0.219370     0.171080     0.060817     0.114151     0.210742    -0.101600
0.661200     0.037974     0.157088    -0.126166    -0.015341    -0.038638     0.152667
0.662400     0.064486    -0.017484    -0.036735    -0.048068    -0.100115     0.016773
0.663600    -0.021556     0.000243     0.184450     0.134001     0.189475    -0.221076
0.664800    -0.052483    -0.091080     0.088794    -0.098624    -0.008508    -0.166086
0.666000     0.019101    -0.084987    -0.188011     0.011406    -0.223611    -0.090183
0.667200    -0.216093     0.091567     0.132867    -0.003511     0.041500    -0.261638
0.668400     0.075619    -0.090069     0.130364     0.107099    -0.052094    -0.025171
0.669600    -0.015149     0.069795     0.020671    -0.173680    -0.082653    -0.203942
0.670800     0.047514     0.016570    -0.038650     0.006086    -0.249940    -0.084144
0.672000    -0.054258    -0.138486     0.034023     0.053365     0.096859     0.005753
0.673200     0.129518    -0.054305     0.065193     0.016550     0.165773     0.097005
0.674400    -0.038350    -0.082958    -0.098255    -0.071564     0.082070     0.025860
0.675600     0.080068     0.094651     0.119038     0.182407     0.153623     0.037085
0.676800    -0.118238    -0.010147     0.009684    -0.146626     0.015092     0.137678
0.678000    -0.061025    -0.144813    -0.008857    -0.013258    -0.048818    -0.000085
0.679200     0.069261     0.105842     0.133882    -0.191595     0.034060     0.135266
0.680400     0.048838     0.065368    -0.218806     0.018859    -0.110550    -0.066762
0.681600    -0.129621     0.152619    -0.036562    -0.089850    -0.011597    -0.264531
0.682800    -0.003744     0.029518     0.008253     0.114670    -0.170016     0.086054
0.684000    -0.088668     0.110917     0.245948     0.086516     0.105824    -0.073806
0.685200    -0.038992     0.002155     0.160239    -0.065110    -0.015961    -0.078904
0.686400     0.090360    -0.012285    -0.020098    -0.073024    -0.060746    -0.153501
0.687600     0.169747     0.101886    -0.064884    -0.117577     0.020739    -0.101863
0.688800     0.022001    -0.185319     0.018538     0.063110     0.060009    -0.135732
0.690000    -0.118790     0.099115    -0.121483     0.076172    -0.051084     0.089432
0.691200    -0.083663    -0.022272    -0.130589    -0.003581    -0.032293     0.215263
0.692400    -0.040659     0.040883     0.032649     0.062116     0.201155    -0.072921
0.693600     0.022610     0.119533     0.080250     0.075153     0.138058     0.023577
0.694800    -0.147787     0.160315     0.183646     0.025845     0.135082     0.044528
0.696000    -0.182237    -0.028147     0.030191    -0.009776     0.084318     0.002842
0.697200     0.143882     0.232004     0.027241    -0.130403    -0.050581    -0.017000
0.698400    -0.082219    -0.079015     0.117732    -0.010956     0.234127    -0.091037
0.699600     0.024008     0.080211    -0.076924    -0.067937     0.135543     0.066621
0.700800     0.024403    -0.000679    -0.052291     0.134768     0.081225    -0.027116
0.702000     0.023832     0.068007    -0.110119    -0.149192    -0.032150     0.213805
0.703200    -0.000718     0.060226    -0.044135     0.011443    -0.007589    -0.045140
0.704400     0.008090     0.046337     0.063698     0.127084     0.147806     0.161247
0.705600     0.013278     0.182307     0.158291    -0.017556     0.038848     0.054898
0.706800    -0.017726    -0.059193     0.053977     0.203000    -0.131210     0.040124
0.708000     0.206980     0.013674    -0.015153     0.148886     0.057236     0.094408
0.709200    -0.008767    -0.048190    -0.076738     0.005333    -0.076570    -0.051421
0.710400    -0.062646    -0.076206    -0.080718    -0.047455     0.063892    -0.080874
0.711600     0.006945    -0.045344    -0.001847     0.182611     0.159633     0.134599
0.712800    -0.019292    -0.004430    -0.188323    -0.034596    -0.012057    -0.040999
0.714000     0.110878     0.023370     0.126587     0.020245    -0.177583    -0.041732
0.715200    -0.010617     0.008604     0.089164     0.051616     0.058877     0.019345
0.716400    -0.152595     0.096734    -0.144008     0.181725    -0.084827    -0.156834
0.717600     0.043929     0.033676    -0.203453    -0.189157     0.076376     0.061535
0.718800    -0.109764     0.100841    -0.213034     0.005096     0.022727    -0.099618
0.720000    -0.047863    -0.092875     0.150198     0.088822    -0.026428    -0.034874
0.721200    -0.058930    -0.043100    -0.030375     0.098792     0.025660    -0.126756
0.722400    -0.171297    -0.027023     0.066059    -0.032206    -0.054298    -0.077532
0.723600     0.076435     0.106437    -0.089847     0.119272     0.009163     0.038933
0.724800     0.007068     0.059785    -0.082807    -0.018767    -0.139907     0.180512
0.726000     0.039348     0.001668    -0.165167     0.188904    -0.001613    -0.012426
0.727200    -0.057498     0.032858     0.015729    -0.160369    -0.032957     0.083405
0.728400    -0.034385    -0.035375     0.122065    -0.081637     0.036868     0.015407
0.729600     0.022370     0.005340     0.084191     0.009318    -0.063722    -0.092601
0.730800    -0.043308     0.114406     0.098186    -0.085329     0.009540    -0.103734
0.732000     0.039559    -0.000974     0.235895     0.022518    -0.028004    -0.040509
0.733200    -0.072011    -0.028610    -0.096398     0.032658    -0.236237     0.016212
0.734400    -0.000046    -0.182280     0.008167    -0.063718     0.038940     0.080342
0.735600    -0.096778    -0.053641    -0.090771     0.142190    -0.062436     0.009132
0.736800    -0.003439     0.040200    -0.099863     0.125576    -0.070897     0.039046
0.738000     0.160496     0.007904     0.074093     0.059175     0.022432    -0.102288
0.739200     0.008651     0.029361     0.073755     0.002730     0.009991    -0.086309
0.740400    -0.082084     0.013946     0.055217    -0.013439     0.022631    -0.021915
0.741600     0.100121    -0.015048     0.058467    -0.053976    -0.074093     0.122661
0.742800     0.055139    -0.116934    -0.046263    -0.049429    -0.199813     0.018772
0.744000     0.153856     0.008552    -0.144982    -0.041373    -0.082620     0.069302
0.745200     0.052987     0.058486     0.078832     0.063471     0.133832    -0.113692
0.746400     0.084584    -0.160223    -0.017440    -0.051023     0.041676     0.049257
0.747600     0.000426    -0.055897    -0.070204    -0.055632     0.080974    -0.011669
0.748800     0.014000     0.085479    -0.058589     0.097172    -0.024306    -0.076269
0.750000    -0.071564     0.048984     0.061765    -0.142189     0.038829     0.153125
0.751200    -0.047141    -0.049974     0.119874     0.098232    -0.035896     0.043055
0.752400    -0.096049    -0.023289     0.070480    -0.128219     0.102176    -0.155339
0.753600     0.058816     0.042424    -0.110897     0.009010     0.136757     0.097595
0.754800     0.006771     0.103693     0.099069     0.001130    -0.063519    -0.153330
0.756000     0.050838     0.167609     0.133061    -0.113616    -0.056694    -0.085773
0.757200    -0.004016     0.057107     0.047480    -0.021785    -0.106329     0.066010
0.758400    -0.177718    -0.024644    -0.085138    -0.058764     0.066161    -0.058964
0.759600     0.023954    -0.074945     0.077634    -0.033973    -0.026598     0.078783
0.760800     0.113046     0.039427     0.076636    -0.074856     0.071734     0.014879
0.762000     0.146130    -0.092278    -0.108708    -0.036841     0.137175     0.059936
0.763200    -0.112880    -0.184647     0.050317    -0.089916    -0.014261     0.045147
0.764400     0.182528     0.179888    -0.042080     0.043872     0.101814     0.169763
0.765600     0.006171    -0.016502    -0.028529    -0.005463     0.101822    -0.011216
0.766800    -0.049984     0.058199     0.102100     0.198114    -0.046004    -0.055540
0.768000    -0.010246    -0.055107    -0.068571    -0.029435    -0.060368     0.011731
0.769200    -0.045105     0.079232     0.048858    -0.104757     0.049161     0.001558
0.770400     0.297684    -0.108318     0.075617    -0.082182     0.062106    -0.037501
0.771600    -0.013563     0.029531     0.109005    -0.022368     0.012167     0.104936
0.772800     0.013796     0.103470    -0.000556     0.052060     0.143460    -0.165919
0.774000    -0.072147     0.014108    -0.013803    -0.068851    -0.235245     0.016693
0.775200    -0.078447     0.039098    -0.110805    -0.047070     0.068410    -0.002877
0.776400    -0.031219    -0.032186    -0.015876     0.123997     0.017045     0.101879
0.777600     0.042160     0.077684    -0.048279    -0.056294     0.042498    -0.162724
0.778800     0.114457     0.060581     0.079202     0.111206    -0.029904     0.057556
0.780000    -0.004794     0.184521    -0.032231    -0.059205     0.134170    -0.152608
0.781200    -0.027550    -0.007634     0.084260     0.034667    -0.077688     0.090679
0.782400     0.057320     0.090306    -0.050313    -0.111526    -0.118405     0.010645
0.783600     0.015351     0.040165    -0.092011     0.010696    -0.012427    -0.027532
0.784800    -0.045175    -0.150802    -0.029238     0.056475     0.110328     0.012161
0.786000     0.094705     0.036660     0.085834     0.029854    -0.000791     0.119346
0.787200     0.088031    -0.087600     0.043037    -0.074033     0.070593    -0.014581
0.788400    -0.028972     0.001568    -0.004204     0.002837     0.032181     0.051754
0.789600    -0.073401    -0.066539    -0.013991     0.062706     0.011553    -0.081267
0.790800     0.111058     0.018194    -0.047405     0.078487     0.062984    -0.092217
0.792000    -0.178966     0.111769    -0.033800     0.126626     0.059109     0.120889
0.793200    -0.072313    -0.011995     0.050435    -0.001468    -0.004348    -0.006831
0.794400    -0.084459    -0.044463    -0.071478     0.018081     0.099475    -0.107644
0.795600     0.021279     0.052332     0.022134    -0.105380    -0.052769    -0.089471
0.796800     0.004373     0.039115     0.058707     0.001701     0.026430     0.010733
0.798000    -0.132223    -0.108473     0.021213    -0.068415     0.023210    -0.134960
0.799200    -0.004069     0.069360     0.007630    -0.013235    -0.008582     0.161392
0.800400    -0.033014     0.071404    -0.009231    -0.046173     0.026105     0.170143
0.801600     0.014707    -0.006547    -0.109749    -0.061531     0.083259     0.039975
0.802800     0.040933     0.057762     0.025301     0.027331     0.018254     0.048646
0.804000     0.007108     0.040012     0.056277    -0.000110    -0.004734    -0.020109
0.805200    -0.012321    -0.033583     0.050314     0.106402     0.032324     0.192765
0.806400     0.051544     0.069869    -0.005771    -0.037938    -0.053920     0.102742
0.807600     0.014487    -0.114381     0.011689    -0.006187     0.057682    -0.013583
0.808800    -0.119698    -0.052902     0.005233    -0.072999    -0.055153     0.107732
0.810000    -0.037824     0.149724     0.006151    -0.074625     0.018863    -0.021460
0.811200     0.058851    -0.106170     0.060856    -0.111866     0.026886    -0.099944
0.812400    -0.123881    -0.004953    -0.089206    -0.087171    -0.034772     0.038022
0.813600     0.026847     0.058928     0.094456     0.113433     0.031812     0.039419
0.814800     0.050282    -0.015619    -0.076776    -0.064731    -0.036599    -0.045331
0.816000    -0.115356    -0.036022    -0.016216     0.040231    -0.009345    -0.084609
0.817200     0.058678    -0.006780     0.019615     0.086211    -0.076613    -0.056502
0.818400    -0.090593     0.046224    -0.016677     0.060452     0.020075    -0.017640
0.819600    -0.104473     0.099093     0.110376    -0.226606     0.090102    -0.017464
0.820800     0.028232    -0.065916    -0.042473    -0.124091     0.032661     0.011115
0.822000     0.038300    -0.091277     0.028584     0.085112     0.081572     0.027504
0.823200    -0.085066    -0.045810     0.013705     0.060095     0.064505    -0.035155
0.824400     0.014676    -0.020519     0.020276    -0.039804     0.094634    -0.091398
0.825600     0.093524     0.090403     0.009827    -0.051327    -0.087829    -0.017531
0.826800     0.001513    -0.047770    -0.034486    -0.055089     0.115078     0.004395
0.828000     0.039213     0.032295     0.061784     0.097934    -0.044611    -0.122519
0.829200     0.104634     0.109043     0.021750    -0.063170    -0.010737    -0.039728
0.830400     0.031971     0.029952     0.150375    -0.016147     0.019990     0.003870
0.831600    -0.027571    -0.040174    -0.066661    -0.036942    -0.000634    -0.017775
0.832800    -0.021928    -0.085134     0.041593     0.009261     0.002220     0.085120
0.834000     0.016614    -0.017229     0.042308     0.091430    -0.043692     0.043337
0.835200    -0.118649     0.026605     0.122421     0.050791     0.014803     0.038301
0.836400    -0.021348     0.000281    -0.029595    -0.094685    -0.001730     0.064840
0.837600    -0.003080     0.040735     0.066293    -0.111450    -0.049885    -0.031311
0.838800    -0.116246     0.046234    -0.032492    -0.092794     0.055944    -0.034328
0.840000    -0.024860     0.013608     0.038523    -0.130816     0.094178    -0.093039
0.841200    -0.014290     0.006902     0.166888     0.050722     0.020209    -0.007962
0.842400     0.049309    -0.041514    -0.043644     0.059206    -0.057194    -0.118853
0.843600    -0.046181     0.005174    -0.076966     0.230725     0.080050     0.042047
0.844800     0.018876     0.047500     0.000039    -0.100304    -0.028986    -0.100770
0.846000     0.025909     0.079264    -0.011138     0.015403    -0.098042     0.084793
0.847200    -0.032104    -0.011761    -0.054134    -0.015984     0.034914     0.056034
0.848400     0.147346    -0.138861     0.024303     0.067762     0.002214     0.097691
0.849600    -0.013198    -0.050537    -0.072212    -0.001860    -0.006586    -0.087394
0.850800     0.032412    -0.028327    -0.093847     0.011945    -0.067616     0.073800
0.852000    -0.003588     0.034886    -0.040540     0.043000     0.071664     0.045918
0.853200     0.169278    -0.047056    -0.098619    -0.017075     0.011939     0.012085
0.854400    -0.089536    -0.019753     0.027158    -0.021319    -0.076895    -0.037913
0.855600     0.036051    -0.007682    -0.078499     0.006144    -0.023393     0.099116
0.856800    -0.046283     0.050195     0.065460    -0.022398     0.089215     0.012710
0.858000     0.102558     0.056777     0.026373     0.019596     0.020286    -0.114000
0.859200    -0.028644     0.031010    -0.003826    -0.131845    -0.040493     0.014776
0.860400     0.105409     0.004945     0.003133    -0.055120    -0.028116     0.067429
0.861600    -0.036604    -0.065832     0.081319     0.087092     0.056367    -0.033414
0.862800    -0.033135     0.051050    -0.043658    -0.014628    -0.061095     0.143501
0.864000    -0.075249    -0.044464     0.022046    -0.059278     0.033454    -0.010833
0.865200    -0.046144    -0.038270     0.163742     0.075081    -0.054250    -0.027188
0.866400     0.000333     0.020586     0.008369     0.064419     0.000453    -0.022799
0.867600     0.092450    -0.114574    -0.093527    -0.137539     0.089292     0.036476
0.868800    -0.040528    -0.103477     0.011713     0.009888    -0.051661     0.128743
0.870000    -0.056125    -0.079028    -0.001237    -0.085217    -0.042249    -0.025773
0.871200    -0.064695     0.088647    -0.035012     0.000860     0.006567    -0.081214
0.872400    -0.026344     0.030833    -0.012680     0.098164     0.031031    -0.048092
0.873600    -0.053020    -0.041738    -0.027881    -0.001688     0.090448    -0.003562
0.874800    -0.022253    -0.073290     0.078324    -0.000974     0.065106     0.045466
0.876000    -0.103303    -0.015733    -0.002539    -0.043781     0.029869    -0.029983
0.877200    -0.072306     0.021408     0.053729    -0.063754     0.036395    -0.045566
0.878400    -0.140915     0.029065    -0.068620     0.016588     0.000329    -0.054217
0.879600     0.068802    -0.014055    -0.067733    -0.088895     0.079783    -0.142046
0.880800    -0.017778     0.091590    -0.052906     0.015423     0.032136     0.062935
0.882000    -0.037978    -0.023627    -0.027763     0.023418     0.065404     0.096712
0.883200     0.061127     0.063616     0.034986    -0.031057     0.013396     0.000344
0.884400    -0.096590    -0.023240    -0.009869     0.061474     0.061743    -0.043817
0.885600    -0.014986     0.045862     0.072132    -0.027867    -0.021229     0.028985
0.886800     0.016776     0.018823     0.034627     0.016909    -0.052610     0.021194
0.888000    -0.104434     0.007112     0.052662    -0.054795     0.022851     0.002201
0.889200    -0.083043     0.060343    -0.086424     0.055460    -0.013049    -0.061946
0.890400    -0.068330    -0.019674    -0.009221     0.016540     0.002157     0.049635
0.891600     0.059439    -0.000665    -0.002252    -0.064203     0.000890    -0.047784
0.892800    -0.173761    -0.070774     0.000761    -0.008700    -0.036554    -0.134183
0.894000     0.008860    -0.053155    -0.011191     0.000302     0.020549     0.056506
0.895200    -0.031650     0.123329     0.072239    -0.022228    -0.035805    -0.013638
0.896400     0.038194     0.048986     0.019999     0.059031     0.018990    -0.049612
0.897600    -0.005605    -0.069102     0.001002    -0.069764     0.099474     0.010229
0.898800     0.071520     0.057678     0.019438    -0.083442    -0.004284    -0.030062
0.900000    -0.053990     0.084113    -0.047979    -0.031640     0.010796     0.012757
0.901200    -0.006061    -0.006575     0.004176    -0.055053     0.023866    -0.004510
0.902400    -0.017916    -0.042987     0.013865     0.067036     0.033058    -0.056239
0.903600    -0.112329     0.009662    -0.068253    -0.044153     0.053547     0.046643
0.904800     0.066844    -0.056520    -0.058410     0.101403     0.074028     0.091396
0.906000    -0.062070     0.068912     0.015410    -0.001177     0.027816    -0.077211
0.907200     0.002881    -0.001441    -0.027220    -0.020146    -0.022916     0.019103
0.908400     0.017183    -0.072241    -0.033215    -0.101002     0.009217    -0.019181
0.909600     0.017295    -0.035501    -0.010864     0.018834    -0.055291     0.012513
0.910800    -0.023675    -0.039097    -0.028250     0.069346     0.015928     0.015545
0.912000     0.022962     0.101703     0.024825    -0.021082     0.015380    -0.017632
0.913200    -0.022359     0.041129     0.009445    -0.009938    -0.002602    -0.028671
0.914400    -0.030558    -0.011654     0.024917     0.047763     0.006481    -0.065263
0.915600     0.021651     0.000242     0.053826     0.028127    -0.040415    -0.122379
0.916800    -0.001166    -0.010875     0.066355     0.035143     0.060679     0.000000
0.918000     0.017728    -0.064931     0.023651    -0.027093     0.093469     0.087654
0.919200     0.019449     0.009021    -0.056902     0.076513     0.065095    -0.012175
0.920400    -0.102087    -0.011144    -0.045750     0.085061    -0.086818     0.009069
0.921600     0.009213    -0.017133    -0.023119     0.010066     0.001188     0.042959
0.922800    -0.008536    -0.009742    -0.023480    -0.082368     0.016609     0.024888
0.924000     0.017512    -0.016634     0.024483     0.052861     0.035836    -0.070802
0.925200     0.026374     0.015484     0.020734    -0.047118    -0.061845    -0.042953
0.926400    -0.143104     0.031211     0.010253     0.025725     0.021560     0.007916
0.927600     0.039435    -0.061682     0.017954     0.034139    -0.018294     0.006541
0.928800    -0.023959     0.013143    -0.010027    -0.061304    -0.054765     0.054432
0.930000    -0.012165     0.003654     0.001095     0.001618     0.036124    -0.058294
0.931200     0.038939     0.026800     0.044745    -0.065924     0.075333    -0.062513
0.932400     0.073114     0.011078     0.008110     0.006074    -0.025225     0.050807
0.933600    -0.115979    -0.019819     0.004986    -0.005080     0.010510    -0.028557
0.934800     0.029660    -0.071420    -0.006604    -0.015255     0.001235    -0.016174
0.936000    -0.049296     0.058498    -0.005953     0.035614    -0.002064     0.026706
0.937200    -0.009727    -0.124279     0.026227    -0.020879    -0.063685    -0.008319
0.938400    -0.010876     0.038093     0.007621     0.025483     0.044556     0.015385
0.939600     0.043081    -0.117375     0.007379     0.028144     0.043714     0.002847
0.940800     0.025262     0.025198     0.009526     0.023864     0.025393     0.035303
0.942000     0.141673    -0.058092     0.059209     0.034767    -0.058485    -0.023212
0.943200    -0.054042     0.035044    -0.066211    -0.044263    -0.017029     0.042425
0.944400    -0.018599    -0.062125     0.063573     0.092405     0.014742    -0.050332
0.945600    -0.002386    -0.052545    -0.109144     0.045489     0.015712     0.080376
0.946800    -0.026999    -0.031154     0.054779    -0.065641    -0.018493    -0.035147
0.948000    -0.020493     0.033726    -0.012319     0.042054    -0.008900    -0.012890
0.949200     0.009951     0.031457     0.032402     0.046098    -0.050203     0.031179
0.950400    -0.029001     0.051655    -0.003648     0.013488     0.042807    -0.101047
0.951600    -0.086841     0.018196     0.066554    -0.024733     0.077626    -0.022838
0.952800     0.039417     0.030057     0.054750     0.033568     0.044510     0.057097
0.954000     0.081829     0.013116     0.057684     0.009071     0.019938     0.023049
0.955200    -0.070522    -0.088741     0.085065    -0.058983     0.020940    -0.017137
0.956400    -0.062429     0.119301    -0.036573     0.027755     0.024563     0.030715
0.957600     0.012334     0.026653     0.064079     0.053436     0.017026     0.038018
0.958800    -0.003424    -0.026447     0.033528    -0.055840    -0.016641    -0.032158
0.960000     0.007750    -0.009823    -0.002149    -0.002408    -0.017429    -0.017831
0.961200     0.003463     0.047388     0.011362    -0.045324    -0.019938     0.001821
0.962400    -0.005444     0.113862    -0.024836     0.054720    -0.042349    -0.004720
0.963600     0.050764     0.013816    -0.051683     0.048430    -0.026052    -0.018668
0.964800     0.002174    -0.006419    -0.063396    -0.096756    -0.012696     0.038009
0.966000    -0.028823     0.015815    -0.058114    -0.058409     0.009294     0.044022
0.967200     0.034554    -0.051879    -0.008848     0.067134    -0.028483    -0.027292
0.968400     0.041513     0.015108     0.023728    -0.075802     0.040193    -0.030666
0.969600     0.053352     0.062732    -0.016661     0.025867     0.035302    -0.057065
0.970800     0.067965    -0.060275    -0.066501    -0.014209     0.010437    -0.078516
0.972000     0.016484    -0.036997     0.076910    -0.019394    -0.063796    -0.019124
0.973200    -0.043575    -0.019934    -0.034407     0.014390    -0.043286     0.062921
0.974400    -0.068367     0.047985    -0.073148    -0.032189    -0.052923    -0.009014
0.975600    -0.061628     0.007322     0.000205    -0.031196     0.040807    -0.033163
0.976800    -0.043232    -0.025228     0.072304     0.036055     0.018897    -0.035510
0.978000     0.063071     0.066269    -0.095286     0.003056    -0.048177     0.051232
0.979200    -0.009492     0.035924    -0.061894    -0.062017     0.001055    -0.029749
0.980400    -0.074217     0.032491    -0.060834    -0.019470     0.021310    -0.069813
0.981600     0.052039     0.011443     0.086967     0.021194    -0.018244    -0.024410
0.982800     0.038671     0.038227     0.076426    -0.041222     0.055460     0.004626
0.984000     0.019223     0.058830     0.006995    -0.081593     0.085247    -0.015885
0.985200     0.043441    -0.021082     0.050380     0.056745     0.035912     0.029208
0.986400    -0.051433     0.000514    -0.006372    -0.050555     0.068191     0.041747
0.987600    -0.010484    -0.010551    -0.044861    -0.012728    -0.023506    -0.058176
0.988800     0.014543    -0.012304     0.009301     0.015278     0.056284     0.008653
0.990000     0.033682     0.011435     0.030854     0.005290     0.045905     0.116587
0.991200    -0.072696    -0.000316    -0.053272    -0.023556    -0.022434     0.005059
0.992400     0.022791     0.034283    -0.075796     0.025660     0.005859     0.009229
0.993600     0.013356     0.039881    -0.051029     0.017910    -0.002920     0.018195
0.994800     0.001720    -0.046893     0.036520     0.083278     0.029629    -0.003288
0.996000    -0.005429     0.036429     0.014471     0.014844    -0.028982    -0.047870
0.997200     0.035958    -0.012104     0.054548     0.047405     0.008576     0.033332
0.998400     0.065724     0.028772    -0.020827     0.035290     0.008003     0.026634
0.999600    -0.026830    -0.066642     0.070207     0.033941    -0.006843    -0.011778
1.000800     0.029827     0.075103    -0.043575     0.022555     0.002821    -0.013997
1.002000    -0.025758    -0.085825    -0.022086    -0.023048    -0.021282    -0.023490
1.003200     0.019007     0.059977    -0.020400     0.013048     0.019778     0.090893
1.004400    -0.057431     0.027212     0.014508    -0.026705    -0.028703    -0.041055
1.005600    -0.043078     0.047412    -0.061426     0.021399    -0.036742     0.019609
1.006800     0.033379    -0.033776     0.055877     0.002044    -0.064901    -0.042960
1.008000     0.031783     0.031282    -0.033071    -0.037236     0.047979    -0.028748
1.009200     0.001979    -0.040120     0.061832    -0.035584    -0.014622    -0.069495
1.010400     0.025886     0.034065     0.025484     0.048018    -0.060337     0.042787
1.011600     0.011448    -0.048891     0.014077     0.015678     0.063760    -0.017709
1.012800    -0.039306     0.068948    -0.069208     0.065844     0.015346    -0.057435
1.014000    -0.012609     0.017204    -0.046901     0.085387     0.055959    -0.007579
1.015200    -0.046967    -0.070441    -0.006185     0.027264    -0.043389     0.034581
1.016400     0.003023     0.036639     0.068268    -0.000189    -0.044864     0.086066
1.017600    -0.011308     0.042253    -0.018362     0.054426    -0.096347     0.021993
1.018800     0.049892    -0.041342    -0.006408     0.046688     0.013568     0.018355
1.020000     0.024767     0.031590    -0.007341     0.041933    -0.058832     0.019814
1.021200    -0.000232     0.013194     0.020355    -0.036176    -0.075163     0.064579
1.022400    -0.008481    -0.016463     0.030596    -0.070248     0.002712     0.058029
1.023600    -0.017962    -0.071155     0.006671    -0.038167     0.003595    -0.008480
1.024800    -0.012933     0.026007    -0.023837     0.007615    -0.017606    -0.035716
1.026000    -0.026239    -0.030623    -0.045333    -0.017938    -0.021727    -0.029437
1.027200    -0.010625     0.001159     0.049125     0.012268     0.061700    -0.058051
1.028400    -0.016536     0.053372    -0.081732    -0.034813    -0.040395     0.023825
1.029600    -0.032130    -0.041107    -0.027808     0.046517     0.015514     0.007080
1.030800    -0.012282    -0.016759     0.040916    -0.015168     0.000607    -0.013004
1.032000    -0.015952     0.026787    -0.047265     0.035979    -0.029167    -0.039802
1.033200     0.016661     0.052195    -0.027199     0.040619    -0.014095     0.047482
1.034400     0.009172     0.008019    -0.009495     0.022014     0.015325     0.048344
1.035600     0.012547     0.002186    -0.011941     0.026035     0.064046     0.016469
1.036800    -0.068960     0.019147    -0.049049    -0.016952     0.054096     0.003999
1.038000    -0.091467     0.018271     0.017762    -0.014769    -0.029043    -0.010840
1.039200     0.066702    -0.029062     0.007213     0.040068    -0.009082     0.001762
1.040400     0.026014     0.051832    -0.002228     0.000801     0.058277    -0.020217
1.041600     0.010067     0.005599     0.009576     0.027030     0.003305    -0.001739
1.042800    -0.015294     0.023650    -0.011272    -0.007050    -0.018404     0.039629
1.044000    -0.040483     0.000483     0.002328    -0.004165     0.017316     0.017219
1.045200    -0.010837     0.017418     0.056079     0.022244     0.013571     0.003770
1.046400    -0.031209     0.029404     0.013749     0.017208    -0.009564     0.049739
1.047600    -0.035203     0.042566    -0.008048     0.050505     0.001024    -0.078282
1.048800     0.021826    -0.013892    -0.003263     0.000127     0.016829     0.014239
1.050000     0.067301     0.034463    -0.019089    -0.014658     0.051442    -0.007174
1.051200    -0.006040    -0.030547    -0.019102     0.042108     0.014573     0.049410
1.052400    -0.034597     0.021612     0.011244     0.050230    -0.060888     0.014425
1.053600     0.002020     0.070736    -0.005170     0.000795     0.000087     0.033675
1.054800    -0.015877    -0.023679    -0.048195    -0.027142    -0.003414    -0.005284
1.056000     0.038335     0.030223     0.003463     0.079578     0.017773    -0.022895
1.057200    -0.058768    -0.018823    -0.038917     0.027626    -0.048551    -0.028647
1.058400    -0.055827     0.006385    -0.021454    -0.056543     0.000955     0.033505
1.059600    -0.012105    -0.060269     0.022215    -0.036742    -0.008542     0.064158
1.060800     0.000067    -0.028425    -0.039952     0.016249    -0.046151    -0.013084
1.062000    -0.015373    -0.015630     0.028697     0.037353    -0.007634     0.040670
1.063200     0.037591     0.062094    -0.038622    -0.060244    -0.036134    -0.016149
1.064400     0.043321    -0.014342    -0.024202     0.047706    -0.001566     0.011930
1.065600    -0.006116     0.013349    -0.026977     0.041173     0.036653    -0.012073
1.066800    -0.006075     0.033845     0.003114     0.006912    -0.019276     0.056518
1.068000    -0.017046    -0.004008    -0.024559    -0.025467    -0.002010    -0.007962
1.069200     0.013321    -0.021575     0.039788     0.061583    -0.000662    -0.010493
1.070400     0.027507     0.021815    -0.006341     0.015146    -0.015818     0.019510
1.071600     0.031797    -0.036806     0.002994    -0.044979     0.006540     0.055281
1.072800     0.059161     0.001418    -0.038557    -0.025864    -0.014397     0.007822
1.074000    -0.025075    -0.022241    -0.030002    -0.045510    -0.012879    -0.003396
1.075200    -0.021296     0.001372     0.010150    -0.007807    -0.038243    -0.039458
1.076400     0.051747     0.008240    -0.012091     0.016874     0.003329     0.014928
1.077600    -0.008692    -0.028432     0.020286     0.035025    -0.038869     0.041856
1.078800     0.034279     0.037249    -0.044409    -0.050358     0.003964    -0.046085
1.080000    -0.046913     0.020101    -0.056961    -0.037821    -0.045187    -0.014326
1.081200    -0.006230    -0.004681     0.050232     0.068497    -0.005836     0.006608
1.082400    -0.034661    -0.021811    -0.005078     0.013655     0.010269    -0.011114
1.083600    -0.004252    -0.004869    -0.034205    -0.016602     0.021962    -0.004543
1.084800     0.025919     0.007973    -0.018331     0.019425    -0.006939     0.010851
1.086000    -0.020466    -0.000395    -0.034680     0.017595     0.005173    -0.027828
1.087200     0.053591    -0.010518    -0.018431    -0.006322     0.029846     0.018625
1.088400    -0.015806    -0.051564    -0.003854    -0.031221    -0.035397    -0.007680
1.089600    -0.013265    -0.042637    -0.018851    -0.016919     0.005954     0.004313
1.090800     0.043877    -0.001697    -0.003111    -0.034693     0.031037     0.049625
1.092000     0.009163     0.050093     0.008489     0.022896    -0.029593    -0.009364
1.093200    -0.005009    -0.013889     0.039196     0.044039    -0.026551    -0.001166
1.094400    -0.004132    -0.008834    -0.033390    -0.004707    -0.047344    -0.002514
1.095600    -0.004238     0.006500    -0.008834    -0.051428    -0.004916    -0.029514
1.096800    -0.014589    -0.046994    -0.008227     0.018923    -0.009739    -0.007773
1.098000     0.031558    -0.024832    -0.050952     0.025760    -0.018930     0.036960
1.099200    -0.002463    -0.001280     0.033490     0.028414    -0.007470     0.027964
1.100400     0.031176    -0.013741    -0.065695    -0.011830     0.024196     0.008940
1.101600    -0.011440     0.041519     0.023017    -0.024573     0.029440    -0.020506
1.102800    -0.030183    -0.006525    -0.017047     0.000604    -0.029864     0.025853
1.104000    -0.006072     0.024941     0.024904    -0.017713    -0.015096     0.031372
1.105200     0.000901     0.005045    -0.020145    -0.014125     0.044667    -0.023566
1.106400    -0.034440     0.011322    -0.028695     0.023679     0.046633    -0.045821
1.107600     0.023117    -0.037520     0.019143     0.051948    -0.007892    -0.018686
1.108800    -0.000709    -0.027458    -0.011147    -0.039562     0.043297     0.006227
1.110000    -0.030879     0.023532     0.074932     0.007560    -0.033865    -0.017911
1.111200    -0.034180    -0.031872     0.022386     0.010391    -0.036307    -0.022638
1.112400     0.023489     0.002582     0.045648    -0.051934     0.041757     0.005656
1.113600     0.008972    -0.054010     0.005433    -0.030496     0.005073     0.005949
1.114800    -0.036855    -0.023364     0.001845     0.017903     0.012145    -0.023969
1.116000    -0.002291     0.026824     0.017736    -0.028456     0.046194     0.004738
1.117200     0.047724    -0.026755     0.007061    -0.010640    -0.026885    -0.039849
1.118400     0.036185     0.026777    -0.013937    -0.025772    -0.018090     0.003364
1.119600     0.014964    -0.024342    -0.043135     0.040522    -0.012102     0.008063
1.120800     0.004847    -0.006614    -0.001446    -0.001479    -0.001979     0.010565
1.122000     0.054483    -0.026329    -0.003370     0.045612     0.007581     0.067936
1.123200    -0.011789     0.015147    -0.007810    -0.011551    -0.010860    -0.011440
1.124400    -0.030866    -0.022493     0.015051     0.012795     0.012079     0.019734
1.125600     0.031620    -0.010845     0.020024    -0.009258    -0.016337    -0.010649
1.126800    -0.039602     0.010119    -0.001121    -0.009930     0.033287     0.000444
1.128000     0.019808    -0.035228     0.022928     0.042768    -0.011133    -0.015849
1.129200     0.023323    -0.020472     0.018453    -0.010088    -0.003553     0.037839
1.130400     0.002462     0.004591     0.017044     0.028757    -0.019237     0.035379
1.131600    -0.073340     0.024191    -0.011849    -0.000805     0.003591     0.034970
1.132800    -0.011550     0.010763    -0.013952    -0.019648    -0.006697    -0.006321
1.134000     0.022717    -0.056926    -0.005349     0.011390     0.000119    -0.000567
1.135200     0.005528    -0.023398    -0.003411    -0.050726    -0.045407    -0.019800
1.136400    -0.008703     0.018800    -0.000160     0.009589    -0.013626     0.007547
1.137600    -0.006002     0.002660    -0.015559    -0.021044     0.037312    -0.018736
1.138800     0.011023    -0.028286    -0.020900    -0.045688    -0.014237    -0.018284
1.140000     0.030709    -0.034558     0.044820     0.037986     0.008237    -0.019738
1.141200     0.033221    -0.025371    -0.052721     0.015026    -0.012370    -0.030864
1.142400     0.009381     0.034498    -0.008759     0.009717    -0.002253     0.009674
1.143600     0.015325     0.026521     0.002873     0.024474     0.013204    -0.043831
1.144800     0.024420    -0.011539     0.039167     0.010678     0.010268     0.017887
1.146000     0.051147    -0.016506    -0.023571     0.019704     0.023017     0.029694
1.147200     0.008424     0.013530     0.005732     0.028017     0.032399    -0.031391
1.148400    -0.042255     0.047342    -0.017655     0.030595     0.024044    -0.027804
1.149600     0.022587    -0.057701    -0.010032     0.033474    -0.022864     0.029692
1.150800    -0.009215    -0.000142    -0.024203    -0.017364    -0.012979     0.033681
1.152000    -0.019454    -0.004167    -0.002805    -0.004454     0.015139     0.052677
1.153200     0.005223    -0.001885     0.008048    -0.012751     0.037570     0.016671
1.154400    -0.002235     0.038558    -0.004060    -0.023096     0.052351     0.044939
1.155600    -0.045395     0.003387    -0.007134    -0.014598    -0.008790     0.008241
1.156800    -0.008908    -0.037138     0.050900     0.007374     0.034758     0.010824
1.158000     0.008415     0.014038    -0.020047    -0.023190     0.002854    -0.016348
1.159200     0.062697     0.018870    -0.044364    -0.020611     0.004425    -0.016846
1.160400    -0.008869    -0.011536     0.023874    -0.027290     0.048226    -0.004881
1.161600     0.000557    -0.021235     0.021820    -0.017645    -0.006883     0.022141
1.162800     0.000007    -0.006265    -0.018338     0.054149    -0.011039     0.037366
1.164000    -0.029347    -0.039260    -0.043064    -0.038611    -0.054413    -0.019671
1.165200    -0.020383     0.018928     0.005947    -0.017515    -0.011700    -0.012544
1.166400    -0.022931     0.002569     0.026195    -0.020536    -0.018132     0.017394
1.167600     0.053521    -0.000116     0.082695     0.018915    -0.010956     0.005356
1.168800     0.058434     0.012687     0.030176     0.006350     0.011275    -0.037922
1.170000     0.032628    -0.049524    -0.009365     0.007361    -0.004746     0.016976
1.171200    -0.011968    -0.009782     0.020906    -0.036322     0.010114    -0.031224
1.172400     0.003429    -0.024053    -0.010941    -0.035421     0.028531    -0.021753
1.173600    -0.009910    -0.003525    -0.003884    -0.014977     0.020521    -0.007428
1.174800    -0.042411    -0.001707    -0.001830    -0.028737    -0.010363     0.018584
1.176000    -0.041097     0.043696    -0.006320     0.025613     0.032305     0.029726
1.177200    -0.045136     0.051550    -0.015257    -0.043313     0.005232    -0.029508
1.178400     0.009148    -0.020503     0.040798     0.019260    -0.020676     0.010914
1.179600    -0.040740    -0.010610     0.027853     0.012862     0.003884     0.008305
1.180800    -0.003445     0.022862     0.004660    -0.001801    -0.013427    -0.003877
1.182000     0.021641    -0.018708    -0.009195     0.007084    -0.011065    -0.003327
1.183200     0.017297    -0.009098    -0.024521     0.025793     0.037627    -0.004054
1.184400     0.009936    -0.000777    -0.018134    -0.016093    -0.027798     0.009328
1.185600     0.032743    -0.028204     0.016266     0.027116    -0.013943     0.044766
1.186800     0.014071    -0.012673    -0.036369     0.010606     0.027541    -0.019403
1.188000    -0.017669     0.023222    -0.025424     0.028649     0.042656     0.008577
1.189200     0.009296    -0.015219     0.013572    -0.015631    -0.030555    -0.020395
1.190400    -0.018307    -0.026949    -0.019396     0.020379    -0.020886     0.015465
1.191600     0.000917     0.035771     0.013072    -0.002965    -0.006248     0.009431
1.192800     0.021989    -0.021418    -0.012314     0.001031    -0.005206    -0.023793
1.194000     0.006304     0.015669     0.007931     0.026243     0.006319    -0.026665
1.195200    -0.015404    -0.001092    -0.020602     0.024326     0.026887     0.038576
1.196400    -0.010101     0.018347    -0.000430     0.037365     0.005514     0.053058
1.197600    -0.020360    -0.077125    -0.004547    -0.006602     0.011761    -0.008595
1.198800    -0.045209     0.046546     0.026448    -0.021649     0.029885     0.014217
1.200000    -0.048347    -0.025175    -0.012410    -0.005661     0.020378    -0.010974
1.201200     0.002886    -0.020517     0.006466     0.012010     0.031921    -0.017714
1.202400    -0.012899     0.017572     0.011542     0.005233    -0.035587    -0.011141
1.203600    -0.033661     0.014154    -0.035314    -0.009556     0.020601     0.024167
1.204800     0.032707    -0.006613    -0.024652     0.011297     0.014520    -0.005022
1.206000    -0.043701     0.040546    -0.018451     0.012605     0.008145     0.022015
1.207200     0.022173     0.005271    -0.006013    -0.013854    -0.019870    -0.017521
1.208400    -0.001947    -0.000775    -0.018018     0.002535     0.047872    -0.025452
1.209600    -0.026280    -0.022548     0.001819     0.004490     0.028860    -0.066427
1.210800     0.020037     0.013963     0.004773     0.005000     0.012023     0.011249
1.212000     0.020321     0.031966    -0.005630     0.009183    -0.007096    -0.006376
1.213200     0.017111     0.006512    -0.005011    -0.009383     0.015446    -0.046764
1.214400     0.007730     0.016287     0.039691     0.010434     0.000429     0.014183
1.215600     0.016191    -0.057566    -0.010744    -0.003159    -0.004482    -0.001764
1.216800    -0.011762    -0.002425    -0.034811     0.032004    -0.021815     0.012320
1.218000    -0.011807     0.013493     0.027933     0.000716     0.009393     0.052533
1.219200     0.012107    -0.016985     0.034925    -0.007466    -0.024565    -0.013089
1.220400     0.030076    -0.009602     0.008132    -0.033429     0.033261    -0.008806
1.221600     0.016363    -0.047079    -0.030936     0.031356    -0.000280     0.034025
1.222800     0.019485     0.042829     0.010591    -0.005025     0.024824     0.011839
1.224000     0.016350     0.009092     0.011408    -0.018786     0.023922     0.006001
1.225200     0.018314     0.010555     0.019964    -0.002933    -0.018671    -0.021099
1.226400    -0.018558     0.006300    -0.018874     0.015420    -0.013744     0.024485
1.227600     0.017906    -0.019776     0.014916    -0.017726     0.006139    -0.010094
1.228800     0.005376    -0.014443    -0.014940     0.025882     0.009389     0.017632
1.230000    -0.013766     0.029047    -0.031341    -0.007771    -0.051466    -0.014792
1.231200    -0.004746     0.034536    -0.006132     0.021130    -0.019835     0.002514
1.232400     0.009474     0.015169    -0.024807    -0.001153     0.001208    -0.004803
1.233600    -0.013859    -0.013070     0.021221    -0.005596    -0.027658    -0.000539
1.234800     0.004155     0.006885     0.008693    -0.033404    -0.003424    -0.011755
1.236000     0.004477    -0.014910     0.003065     0.005578     0.012169     0.049299
1.237200     0.004607     0.037850     0.006784     0.026325     0.012981     0.016501
1.238400    -0.009056    -0.006915    -0.029088    -0.019824     0.006917    -0.005308
1.239600     0.052243    -0.002994    -0.010642     0.001142     0.014745     0.012989
1.240800    -0.000385     0.038564     0.001047     0.003970     0.032854     0.008322
1.242000    -0.054513    -0.031680     0.006258    -0.013811     0.029912    -0.002962
1.243200     0.008136     0.000602    -0.006852    -0.020696    -0.021526    -0.023858
1.244400     0.009823    -0.009264     0.037263     0.016972    -0.025106    -0.029902
1.245600     0.000482     0.003204    -0.030545     0.008324    -0.002530    -0.031098
1.246800    -0.007037    -0.005956    -0.028211    -0.015224     0.019820    -0.027414
1.248000     0.016581     0.043918    -0.007191     0.002094    -0.007304    -0.009091
1.249200     0.037801    -0.002395     0.013748    -0.001666     0.029528    -0.017817
1.250400     0.013710    -0.002313    -0.017564    -0.013216    -0.002133     0.015858
1.251600     0.020041    -0.023083    -0.009620    -0.011979    -0.030432    -0.024323
1.252800     0.032270     0.016150     0.017042     0.012507    -0.007764     0.007958
1.254000     0.010413     0.020253     0.003895     0.017254    -0.034384     0.005784
1.255200     0.006049    -0.006564    -0.004448     0.016773    -0.023488    -0.022270
1.256400    -0.008571    -0.004034     0.008893     0.029181    -0.006695    -0.001800
1.257600    -0.002138    -0.012306     0.013595     0.037792     0.009701    -0.016487
1.258800     0.019617    -0.004311    -0.021611    -0.005098    -0.009380    -0.019231
1.260000    -0.002594    -0.021077    -0.029677     0.008677    -0.013294    -0.032811
1.261200    -0.015334     0.010689     0.000167    -0.006658    -0.021128    -0.002573
1.262400    -0.004540    -0.027324     0.025022    -0.001855     0.030128    -0.007831
1.263600    -0.012700     0.008674     0.005708     0.000858    -0.002155     0.005230
1.264800    -0.009845     0.028285     0.006120    -0.027853    -0.006742     0.006691
1.266000    -0.049222    -0.006301     0.001835    -0.013893     0.019896     0.009742
1.267200     0.005100    -0.011180     0.021379    -0.002981     0.011608     0.001860
1.268400     0.032477     0.011105    -0.000861    -0.015341     0.001381    -0.019872
1.269600     0.016803    -0.001092    -0.001580    -0.016987     0.026350     0.004164
1.270800     0.004739    -0.023316    -0.017552     0.014913    -0.006566    -0.010740
1.272000    -0.027157    -0.003789     0.000236    -0.006032    -0.002665     0.003149
1.273200    -0.010973    -0.004422     0.006236    -0.003141     0.031301     0.018054
1.274400     0.013311     0.020807    -0.019154    -0.024043     0.004690     0.001878
1.275600    -0.013085    -0.010938     0.040319    -0.029685     0.002133     0.030122
1.276800     0.010410     0.003050    -0.008392    -0.008510     0.006241    -0.012780
1.278000    -0.012098    -0.005850    -0.029306    -0.001060    -0.012175    -0.002157
1.279200    -0.023837     0.012377     0.004986    -0.000549     0.002457    -0.010055
1.280400    -0.010279    -0.055219     0.009346     0.001609     0.028798     0.015978
1.281600    -0.044178    -0.008173     0.001099    -0.011026    -0.000358    -0.003265
1.282800    -0.003193    -0.004947     0.028252     0.039099    -0.004979     0.010232
1.284000    -0.036162    -0.007715    -0.012281     0.020346     0.021809    -0.017520
1.285200    -0.008138    -0.015026     0.009173    -0.017416    -0.010622    -0.006310
1.286400    -0.005884    -0.013222    -0.019157     0.007989    -0.029159    -0.025545
1.287600     0.015424     0.003821    -0.007482    -0.009118    -0.020447     0.010657
1.288800     0.004207     0.015211    -0.010985     0.008059    -0.006606     0.008042
1.290000    -0.019778     0.006558     0.008547    -0.012010     0.031114     0.033707
1.291200    -0.003993     0.000646    -0.022342     0.002709    -0.000039     0.007525
1.292400     0.010199    -0.008674    -0.013315    -0.006649    -0.009825    -0.014219
1.293600     0.007008     0.015533     0.006531     0.009149    -0.016185     0.012258
1.294800     0.018022     0.002971    -0.012880    -0.001723    -0.008042     0.005311
1.296000    -0.009366     0.018080     0.006585    -0.001803    -0.006580     0.039814
1.297200    -0.035199     0.026752     0.017181     0.001587    -0.006423    -0.004660
1.298400     0.002915     0.008825    -0.006020     0.023330     0.005413     0.003608
1.299600     0.025700    -0.016325    -0.021077    -0.032751    -0.001511    -0.012564
1.300800     0.011521     0.002747    -0.003517    -0.001249     0.019122     0.007084
1.302000     0.012563     0.012939    -0.000096     0.006066    -0.049995     0.002517
1.303200    -0.017490     0.021167     0.000702    -0.018366    -0.016546     0.003695
1.304400     0.016143     0.007862    -0.017728     0.012546    -0.002135     0.003113
1.305600    -0.013268     0.012879    -0.009731     0.006841    -0.007832     0.024081
1.306800    -0.007190     0.006761    -0.011848     0.007290    -0.001505    -0.017028
1.308000     0.008790     0.023899    -0.007846    -0.014221    -0.000683    -0.000704
1.309200     0.010911    -0.019151    -0.002660    -0.022078     0.014466     0.014665
1.310400     0.008893    -0.011269     0.014033     0.030657    -0.011196     0.005861
1.311600     0.004718     0.010163     0.012352    -0.004139     0.007771     0.009414
1.312800     0.012704     0.004694    -0.022817     0.007030     0.016950     0.003698
1.314000     0.008933    -0.032403     0.012027    -0.028234    -0.004864    -0.030764
1.315200    -0.012867    -0.033627    -0.005071     0.003726     0.021612     0.017019
1.316400     0.027477    -0.002999    -0.015479    -0.010576     0.044995    -0.007987
1.317600    -0.011903    -0.022898     0.007591    -0.006663    -0.017231    -0.012301
1.318800    -0.002199    -0.033947    -0.019653    -0.023248    -0.008746     0.002472
1.320000    -0.007182    -0.001547     0.015988     0.011586     0.028071    -0.022204
1.321200     0.001963     0.021529     0.014426    -0.017317    -0.032613     0.033560
1.322400    -0.002015     0.006460    -0.007641    -0.024111    -0.000161     0.002491
1.323600    -0.015404     0.000021    -0.010191     0.017084     0.011279     0.020935
1.324800     0.029603    -0.046113     0.013154     0.004173     0.003041    -0.004946
1.326000    -0.016370     0.003796    -0.005733     0.011741    -0.020666     0.029474
1.327200    -0.005089     0.010555     0.005262     0.008594     0.006643    -0.015366
1.328400    -0.036906     0.021028    -0.004584    -0.015391    -0.013385    -0.021014
1.329600    -0.029513    -0.005589    -0.017186     0.002374     0.005545    -0.001704
1.330800    -0.031085     0.014387     0.008074     0.026643     0.008898     0.007298
1.332000    -0.006415    -0.002296     0.015661    -0.011308     0.019495     0.030088
1.333200    -0.027890     0.015341     0.016761     0.004131     0.003519    -0.003190
1.334400    -0.016547    -0.001664    -0.010184     0.001720    -0.014830     0.006849
1.335600    -0.007955    -0.004004     0.018791    -0.012748    -0.004902    -0.012094
1.336800    -0.000463    -0.004518    -0.008452    -0.024833     0.001808     0.002076
1.338000     0.004693     0.033352    -0.021070     0.019997    -0.014728    -0.007611
1.339200    -0.009272     0.010533    -0.008409    -0.022947    -0.011366    -0.001494
1.340400     0.002488    -0.012510     0.022128     0.026399     0.013256    -0.005600
1.341600     0.016589     0.002991    -0.002368     0.035127    -0.020379    -0.007617
1.342800    -0.022577    -0.009858    -0.014486     0.003507    -0.003027    -0.000023
1.344000     0.010330     0.027674     0.003833    -0.000258     0.008044     0.006359
1.345200     0.004410    -0.013080     0.019076    -0.001400    -0.008610     0.003297
1.346400    -0.002835    -0.002985     0.016383    -0.003392     0.002183     0.007288
1.347600     0.008774    -0.006321    -0.016793    -0.004238    -0.029234    -0.022983
1.348800     0.008912     0.020402    -0.017282     0.019856    -0.005969     0.002122
1.350000     0.005020    -0.002709    -0.008395     0.007136    -0.012654    -0.015427
1.351200     0.007129     0.002029     0.014932    -0.016365    -0.006347    -0.008677
1.352400    -0.017958    -0.000745    -0.023241    -0.005024    -0.004150    -0.008593
1.353600     0.007475    -0.005497     0.015385     0.020844     0.018255    -0.015423
1.354800    -0.012735    -0.003920    -0.001320    -0.008952     0.011001     0.007241
1.356000    -0.006732     0.000628    -0.006668     0.019574     0.004080    -0.007774
1.357200     0.000197     0.003664     0.005313    -0.002611     0.007862    -0.005546
1.358400     0.002680    -0.030596    -0.010238     0.007214     0.017500     0.008552
1.359600    -0.012253     0.000516     0.007423     0.011463    -0.002445     0.013813
1.360800    -0.017146     0.007740    -0.017848     0.013154     0.015678    -0.003662
1.362000    -0.001083     0.002878    -0.001866    -0.003982    -0.001526     0.008568
1.363200     0.008078    -0.023674     0.023946    -0.016955     0.021061    -0.011031
1.364400    -0.008671    -0.029118     0.004078     0.001547    -0.006998    -0.014262
1.365600     0.002487     0.010424     0.003776    -0.031291    -0.004384    -0.002834
1.366800     0.012079     0.003235    -0.007879     0.001471    -0.009840     0.024899
1.368000    -0.011953     0.007740     0.016997     0.006230     0.006296     0.010513
1.369200     0.015240     0.002921     0.020531     0.014283    -0.002039    -0.003236
1.370400    -0.011721     0.015979    -0.019500     0.013364    -0.002793     0.003599
1.371600     0.001387     0.011947    -0.031586    -0.004584    -0.005856     0.016055
1.372800    -0.000119    -0.009018     0.006862     0.004895     0.004352     0.006479
1.374000     0.002027     0.000664    -0.008232     0.005680    -0.016807    -0.015840
1.375200    -0.016652    -0.011520    -0.013870    -0.001341     0.012761     0.007959
1.376400     0.007478    -0.004832     0.012098     0.005474    -0.024236    -0.009946
1.377600     0.010553    -0.001780    -0.013365     0.013966     0.005921     0.004358
1.378800     0.010764    -0.015427    -0.009084     0.010962    -0.012317    -0.005144
1.380000    -0.017586     0.012419     0.020095    -0.007192    -0.015766     0.000549
1.381200     0.010893    -0.005128    -0.009430     0.003005     0.007182     0.012058
1.382400     0.008473    -0.012944     0.021105    -0.000303    -0.003902    -0.016839
1.383600    -0.032444     0.002364     0.006972    -0.001316     0.010452     0.016020
1.384800    -0.005052     0.006297    -0.001742     0.004955    -0.006627    -0.004659
1.386000     0.004695    -0.013028    -0.009943    -0.030337    -0.007466    -0.008867
1.387200    -0.011610     0.004569    -0.009076     0.019753     0.000764     0.004466
1.388400     0.012074    -0.030321    -0.024335     0.006080     0.004223    -0.015090
1.389600     0.005746     0.004888     0.004955     0.019967    -0.007818    -0.001170
1.390800    -0.000316    -0.011137    -0.001958     0.003069     0.020565     0.004685
1.392000     0.001431     0.002481    -0.005879    -0.003899    -0.016427     0.009738
1.393200     0.021554     0.010790    -0.012634     0.002508     0.020624    -0.020611
1.394400     0.005724     0.009527     0.001523    -0.034926    -0.003485     0.003584
1.395600     0.010826     0.006553     0.017943    -0.006460     0.000068     0.008955
1.396800     0.007302    -0.000571     0.002607    -0.010500     0.005420    -0.004531
1.398000    -0.003569    -0.017512    -0.004724     0.015751     0.021315     0.016033
1.399200    -0.011520    -0.010518    -0.000476    -0.007925     0.000901    -0.010589
1.400400    -0.004698     0.003498    -0.007923     0.009240    -0.004771    -0.034196
1.401600     0.005365    -0.013931     0.014994     0.014585    -0.025720    -0.003897
1.402800     0.001663    -0.009627     0.000917     0.015935     0.011114    -0.005830
1.404000    -0.010831     0.006541     0.004397    -0.012804     0.009652    -0.015367
1.405200     0.003013     0.009192    -0.009098     0.017812    -0.010332    -0.009887
1.406400    -0.005898    -0.006308     0.022217     0.018003     0.003464    -0.013524
1.407600    -0.006919    -0.001980    -0.000628     0.015245     0.004979     0.004896
1.408800     0.000963     0.001518    -0.001624     0.014274     0.004157     0.002671
1.410000    -0.005389    -0.006117    -0.004842    -0.006233     0.024010    -0.002231
1.411200    -0.004812     0.013008    -0.007238     0.001586    -0.004345     0.023183
1.412400    -0.013479     0.007631    -0.004850     0.011277    -0.011708    -0.015986
1.413600     0.006544     0.002586     0.008401    -0.004487    -0.001285     0.009142
1.414800     0.002595    -0.004851    -0.006472     0.008785     0.015412     0.003616
1.416000     0.008883     0.005484    -0.000725     0.013079     0.001885    -0.005068
1.417200     0.005418     0.000205    -0.000818    -0.000865     0.019542    -0.010190
1.418400    -0.020109    -0.000982    -0.008223     0.006353     0.000013     0.008432
1.419600    -0.015846     0.006050     0.003207     0.003347    -0.006858     0.003481
1.420800     0.004715    -0.015913    -0.020996     0.017303    -0.011113    -0.019817
1.422000     0.009569     0.005958     0.002133     0.011191     0.003052     0.000073
1.423200     0.002922    -0.005966    -0.002565     0.003873     0.013404    -0.000494
1.424400    -0.020194    -0.000298    -0.009633    -0.001819     0.014411     0.004352
1.425600     0.011329    -0.004947    -0.002041    -0.003959    -0.005777     0.003772
1.426800     0.015554    -0.006415     0.008864     0.001540     0.006838     0.005330
1.428000     0.005682     0.002557    -0.005594    -0.003485    -0.008719    -0.008275
1.429200     0.005193    -0.002477     0.008580    -0.004235    -0.030725     0.011255
1.430400     0.000423     0.006739     0.013851     0.008316    -0.010155    -0.007923
1.431600    -0.004123    -0.006307    -0.002575    -0.008089    -0.006831     0.005170
1.432800    -0.011019     0.002495     0.000781     0.001345     0.012427    -0.001812
1.434000    -0.001090    -0.003983    -0.006447    -0.014607    -0.003629    -0.007284
1.435200    -0.017950    -0.016786     0.009425     0.006675    -0.002823    -0.001380
1.436400    -0.000155    -0.017987     0.013938    -0.003652    -0.004381     0.001670
1.437600     0.011140     0.008098     0.000127     0.001940     0.008575    -0.008125
1.438800    -0.008221     0.008940    -0.002509    -0.005032     0.006774    -0.001211
1.440000    -0.019164     0.003372    -0.014804    -0.000603    -0.001583    -0.004376
1.441200    -0.000529    -0.000066    -0.000021    -0.005070     0.000920    -0.011023
1.442400     0.014400    -0.021154     0.003731     0.004955     0.000550    -0.010798
1.443600    -0.009666    -0.014598    -0.002834    -0.020313    -0.008933     0.017130
1.444800     0.000829    -0.006199     0.004844     0.010154    -0.001849    -0.004562
1.446000    -0.007230     0.010281    -0.010889    -0.008851    -0.007028    -0.009908
1.447200     0.014156     0.011749     0.003475     0.004137     0.007195     0.012486
1.448400     0.000417     0.021320    -0.001992    -0.008028    -0.000234     0.003930
1.449600     0.015370     0.012606    -0.000578     0.001632    -0.010561    -0.009495
1.450800    -0.018188     0.008535     0.013133    -0.022728     0.007632    -0.007002
1.452000     0.012441     0.003164     0.004932     0.001560    -0.008125     0.012696
1.453200     0.007720     0.000314    -0.023282     0.009732     0.014916     0.005689
1.454400    -0.007542    -0.000415     0.005920    -0.001544    -0.000434     0.002918
1.455600     0.000180    -0.007775    -0.021305     0.009412     0.002126     0.010802
1.456800    -0.006314     0.002106     0.007354    -0.011221     0.009624     0.017724
1.458000     0.009702    -0.006322     0.010047    -0.009788    -0.000341    -0.010299
1.459200    -0.004824    -0.000331     0.003341     0.014508     0.003461     0.002310
1.460400    -0.009843    -0.004246    -0.014258    -0.004758    -0.009302     0.000179
1.461600     0.011773     0.000393    -0.002106     0.011567    -0.003068     0.008864
1.462800    -0.002191    -0.000296     0.005552     0.001716     0.008628    -0.003828
1.464000     0.021281    -0.002797    -0.004891    -0.006012    -0.007589     0.002923
1.465200     0.006287    -0.017087     0.015464     0.011639     0.006042    -0.010338
1.466400    -0.011103     0.006721     0.007654     0.004840    -0.008390    -0.019276
1.467600     0.001280    -0.008990     0.008214     0.001630     0.012612     0.004574
1.468800     0.008758     0.015570    -0.010944     0.002799     0.009881     0.003801
1.470000    -0.002664     0.010134     0.027381    -0.005080     0.006743    -0.000052
1.471200     0.003703    -0.006298    -0.001832    -0.004376    -0.009301     0.007639
1.472400    -0.005722     0.015746     0.022903     0.007851    -0.001882     0.000546
1.473600     0.009528     0.003883    -0.017724    -0.003135     0.002746     0.007989
1.474800    -0.011139     0.004838    -0.004365     0.009842     0.010529     0.002568
1.476000    -0.009570     0.000100    -0.001955     0.007813    -0.015797     0.006383
1.477200    -0.001622    -0.012840    -0.003686    -0.004494     0.000185     0.007475
1.478400    -0.013860     0.001554    -0.008615    -0.007072     0.004484     0.000321
1.479600    -0.004915    -0.004154    -0.005957     0.003768    -0.001333    -0.003432
1.480800    -0.004503     0.005503    -0.004506     0.010936     0.004889    -0.006915
1.482000    -0.009474    -0.006223    -0.001684    -0.009241    -0.004921    -0.012047
1.483200     0.010208    -0.015683    -0.006363    -0.000014    -0.001509     0.009853
1.484400     0.003323     0.004334     0.010146    -0.005642     0.011841    -0.006386
1.485600    -0.002116    -0.004177    -0.005902    -0.007734    -0.013911     0.005220
1.486800    -0.001190    -0.007869    -0.008108     0.011503     0.004005     0.003371
1.488000    -0.005019    -0.004807    -0.000297    -0.012888    -0.004078    -0.004687
1.489200    -0.004516    -0.004851    -0.004643    -0.008488    -0.004597    -0.000338
1.490400    -0.007539    -0.002607     0.005179    -0.010229    -0.000383    -0.003414
1.491600     0.002695     0.002373     0.007496    -0.011424     0.000855     0.001301
1.492800     0.005742    -0.001271     0.004428    -0.000030    -0.000858    -0.003573
1.494000     0.008526     0.014854    -0.008759    -0.011409    -0.004994     0.000599
1.495200     0.006493     0.006810     0.000051     0.012647    -0.006821     0.003783
1.496400     0.005125     0.008155    -0.000063     0.000714    -0.003511    -0.001143
1.497600    -0.007667    -0.008870    -0.008347     0.000256     0.010813     0.006830
1.498800     0.016108    -0.012394    -0.006097     0.014331     0.005600     0.007375
1.500000    -0.000220    -0.005389     0.006215     0.008013     0.007461    -0.003719
1.501200    -0.011579    -0.010061     0.004936     0.001722    -0.012110     0.003143
1.502400     0.001464    -0.017766    -0.017800    -0.006467    -0.004957     0.011205
1.503600     0.005457    -0.007663    -0.001585    -0.006329    -0.002797     0.011095
1.504800     0.013286     0.004058     0.010173    -0.012536     0.004589    -0.017161
1.506000     0.003606    -0.002304     0.004947    -0.005760     0.007974     0.001654
1.507200    -0.001739    -0.009087    -0.008661    -0.004748     0.015201     0.002787
1.508400    -0.004388    -0.012027    -0.010484    -0.003903     0.016145    -0.013730
1.509600    -0.004512     0.004981     0.001404     0.003221    -0.003152     0.005286
1.510800    -0.010446     0.002758    -0.006068    -0.002979     0.005328    -0.001899
1.512000     0.010903     0.007659    -0.004244     0.016341    -0.006496     0.003819
1.513200    -0.012537     0.000785     0.006685     0.010563     0.002161    -0.002723
1.514400     0.002754     0.010361    -0.011228    -0.005879    -0.005319     0.019463
1.515600    -0.003577     0.000703     0.006296    -0.009624     0.006235     0.006995
1.516800    -0.000051    -0.000246    -0.011007     0.006965    -0.003113     0.005107
1.518000     0.001633    -0.006492     0.008050    -0.001518     0.006812    -0.002295
1.519200    -0.002853    -0.010212     0.006032    -0.002147     0.002084    -0.008652
1.520400    -0.003048     0.003717    -0.010312     0.006881    -0.000815    -0.004779
1.521600     0.001126    -0.012551     0.014654     0.015816    -0.008617     0.003107
1.522800     0.004095     0.004221    -0.000830    -0.006692     0.001562    -0.002226
1.524000     0.011390    -0.008893    -0.005361    -0.000339    -0.000579     0.011018
1.525200    -0.015667    -0.005955    -0.003157     0.008439     0.002731    -0.003544
1.526400     0.005857    -0.001739    -0.016418     0.009736    -0.001792    -0.015274
1.527600     0.006773    -0.004649     0.001265    -0.002416     0.003127    -0.009519
1.528800     0.001254     0.002738     0.013161    -0.009041    -0.007902    -0.000784
1.530000    -0.001357    -0.003715    -0.006538     0.012346    -0.001645    -0.007531
1.531200    -0.000718    -0.001127     0.006164     0.015624     0.004611     0.006282
1.532400     0.013456    -0.000643     0.004497     0.003886    -0.000135    -0.009197
1.533600    -0.003404     0.013697     0.003236    -0.007668    -0.006631    -0.010910
1.534800    -0.005820    -0.001615    -0.006547    -0.002853     0.012326    -0.006787
1.536000    -0.006530    -0.012522    -0.001727    -0.003609    -0.010864     0.002026
1.537200    -0.003825    -0.000265    -0.012223    -0.005127    -0.007719    -0.001339
1.538400    -0.002032    -0.001893     0.008425     0.028760    -0.006522    -0.002507
1.539600    -0.004315    -0.019031    -0.002615     0.013323     0.002902    -0.000378
1.540800     0.001053     0.008527    -0.003017     0.009675     0.000567    -0.012203
1.542000     0.017197    -0.006620    -0.010642    -0.002130     0.010646     0.011318
1.543200    -0.003421     0.001043     0.003559     0.005185    -0.006291     0.003333
1.544400    -0.006321     0.008575     0.012617     0.004069     0.002803    -0.006261
1.545600     0.000639     0.000594    -0.008822     0.004938     0.002844     0.007834
1.546800     0.005439     0.005716    -0.012877     0.000000     0.013690     0.002734
1.548000    -0.001664     0.003479     0.007335    -0.004718    -0.011152     0.007397
1.549200    -0.000037     0.012711    -0.002875     0.002017     0.012927    -0.000587
1.550400    -0.009354     0.002490     0.009196     0.000049    -0.001510    -0.000490
1.551600    -0.001973     0.008095     0.009263    -0.009942    -0.005868     0.011455
1.552800    -0.011911    -0.004540     0.008443     0.000949     0.003683     0.006882
1.554000     0.008023    -0.008301     0.004456    -0.008241    -0.001236    -0.005873
1.555200     0.009368     0.001263    -0.002566     0.004961    -0.001792    -0.007108
1.556400    -0.001182     0.003423     0.001103    -0.009128     0.006350     0.003058
1.557600    -0.003921     0.007775    -0.000925    -0.004285    -0.000489    -0.003857
1.558800    -0.002904    -0.002435    -0.005932     0.001019    -0.003872    -0.009180
1.560000    -0.002176     0.008028    -0.000051     0.001876    -0.005551     0.004848
1.561200     0.008719     0.003007    -0.002091    -0.000721    -0.001926     0.009294
1.562400     0.006732     0.008567    -0.007623     0.015593     0.004723     0.001520
1.563600    -0.003207    -0.006643     0.002295     0.004119    -0.003473    -0.010053
1.564800    -0.004935    -0.011476     0.010175     0.001681     0.005603     0.022235
1.566000    -0.002977    -0.000378    -0.006575     0.010517    -0.002648    -0.003266
1.567200    -0.000058    -0.002251     0.001819    -0.006961    -0.006203    -0.007864
1.568400     0.008613    -0.009542     0.002268    -0.012030     0.010973     0.003293
1.569600    -0.001182    -0.010662    -0.001112     0.005430     0.005643     0.011740
1.570800    -0.010322    -0.003984    -0.016349     0.017230    -0.004036    -0.001806
1.572000    -0.003009    -0.005185     0.003038    -0.007667    -0.003720     0.004918
1.573200    -0.001778     0.003833     0.004507    -0.000969    -0.005888    -0.018799
1.574400     0.001944    -0.001347     0.010751     0.009549    -0.000093    -0.009273
1.575600     0.004288     0.012579     0.005998     0.010010    -0.016271     0.005488
1.576800     0.002061    -0.004739     0.000079     0.003356     0.006863    -0.002594
1.578000     0.003726    -0.013237    -0.000538    -0.007311    -0.006149    -0.005949
1.579200     0.004021    -0.015494     0.001880    -0.000123    -0.010176    -0.003942
1.580400    -0.014121     0.007500     0.003953     0.002185     0.006516    -0.012246
1.581600    -0.005201     0.003993     0.003280    -0.001175    -0.002304     0.002631
1.582800     0.010768    -0.001549     0.001930     0.001035    -0.001596     0.010038
1.584000    -0.001912    -0.010076     0.001039    -0.000071    -0.002492    -0.009314
1.585200    -0.005444     0.003859    -0.007489    -0.005219    -0.008671     0.002330
1.586400     0.007150     0.000935     0.000814    -0.010509    -0.006393    -0.005163
1.587600     0.001946     0.006527    -0.004195     0.000996     0.006676     0.003845
1.588800    -0.009308     0.003978     0.008371     0.010487     0.004046     0.004881
1.590000     0.002792     0.004101     0.005034     0.001454     0.000848     0.000828
1.591200    -0.002609    -0.000294    -0.002777     0.004518     0.000811     0.011952
1.592400     0.001518    -0.000158     0.003232    -0.003469     0.009592     0.001314
1.593600    -0.010184     0.001028     0.002190     0.010124    -0.007024    -0.002111
1.594800    -0.007963    -0.007980    -0.003258     0.003917     0.007726     0.013310
1.596000    -0.011207     0.003628    -0.007572     0.001341     0.005061    -0.009698
1.597200    -0.001775    -0.005570    -0.000840     0.012274    -0.008732     0.001643
1.598400    -0.005692     0.004107     0.008851    -0.010359    -0.016601     0.002418
1.599600    -0.008229    -0.000767     0.011150    -0.004936    -0.000515     0.006849
1.600800    -0.003104    -0.007360    -0.004288     0.005410    -0.002790    -0.002611
1.602000     0.007710    -0.001171    -0.004325    -0.000907    -0.005383    -0.004873
1.603200     0.003718    -0.005135    -0.004781    -0.004818     0.011786    -0.002908
1.604400    -0.001480    -0.001326     0.001962    -0.005982     0.009199    -0.000288
1.605600    -0.007183     0.001038    -0.000443     0.002135     0.001649    -0.000483
1.606800     0.002979     0.001068     0.009917    -0.001398    -0.013011    -0.001223
1.608000     0.001777     0.003136     0.016501    -0.001248     0.007561    -0.000393
1.609200     0.008830     0.007140    -0.006495     0.006991    -0.004985    -0.003494
1.610400    -0.003250     0.006201     0.003570     0.005117    -0.008119     0.000607
1.611600     0.001904    -0.002744    -0.001774    -0.001279    -0.010001     0.010007
1.612800    -0.000305    -0.007787     0.008982     0.010595    -0.007178     0.001993
1.614000    -0.006889     0.004644    -0.010494    -0.003982    -0.006145    -0.001476
1.615200    -0.001156     0.003587    -0.007354    -0.009510     0.004013     0.006346
1.616400    -0.002419     0.006330     0.002281     0.000346    -0.005506    -0.003034
1.617600    -0.005718    -0.001165     0.001788    -0.010213     0.005280     0.005012
1.618800    -0.001815     0.008963    -0.002723    -0.006994     0.006642    -0.000371
1.620000    -0.001939    -0.004565     0.001061    -0.004226     0.003027    -0.001237
1.621200     0.001374    -0.002817     0.002488     0.000589    -0.002037     0.004914
1.622400    -0.001920    -0.002546    -0.006682    -0.000906     0.001283    -0.001076
1.623600     0.006123    -0.000697    -0.002595    -0.001294    -0.002925     0.005257
1.624800     0.011699     0.005627     0.003011    -0.001022     0.004860    -0.002887
1.626000    -0.000106    -0.002211     0.000515     0.012021    -0.004856    -0.002246
1.627200    -0.001913    -0.004943    -0.003779     0.005737     0.006858     0.002227
1.628400     0.003284    -0.008480    -0.004860     0.005507    -0.003679     0.007187
1.629600     0.001345     0.005932     0.007249    -0.002164    -0.004117     0.003453
1.630800    -0.003338    -0.001121    -0.010732    -0.000423    -0.009137     0.001182
1.632000    -0.006103    -0.001651    -0.006844     0.003096     0.000508    -0.000893
1.633200     0.008809     0.000069     0.007462     0.006586     0.000797     0.002766
1.634400    -0.001478     0.001067     0.000428    -0.003764     0.006100    -0.006040
1.635600     0.007259    -0.002351     0.006459     0.008672    -0.002450    -0.004410
1.636800     0.003884    -0.000662     0.006380    -0.008262    -0.005258     0.004754
1.638000     0.008470    -0.001490
##PAGE=N=2
##DATA TABLE=(X++(I..I)), XYDATA
0.000000     0.000000     4.139004    -2.456031    -7.457762    -3.236055     4.183353
0.001200     4.155938    -0.841510    -4.731179    -1.418579     6.700807     4.678916
0.002400    -1.142432    -4.848120    -2.754166     3.052297     3.850380    -2.278996
0.003600    -7.040613    -3.765544     2.193493     3.981084     0.996263    -4.281422
0.004800    -2.180799     1.220922     4.646217     0.226754    -4.245116    -2.888753
0.006000     1.557893     5.489578     2.963990    -3.252947    -2.770713     1.423013
0.007200     5.642135     3.466711    -2.665043    -3.810408     1.260075     3.297061
0.008400     2.749660    -3.084913    -1.239577    -0.095506     3.861490     2.745456
0.009600    -1.821905    -2.886823     0.035921     2.504958     1.580224     0.472359
0.010800    -3.205177    -1.711103     1.585865     2.212745    -0.803504    -2.329002
0.012000    -0.757888     1.655426     0.450989    -0.556293    -1.743259    -2.784041
0.013200     3.738525     4.437200     1.424025    -2.940148    -4.140998     1.430452
0.014400     3.884697     2.160361    -2.098146    -2.701374     2.785937     4.194399
0.015600     1.299496    -1.321446    -1.578315     0.360954     1.123480     0.158048
0.016800    -1.340090    -2.106225    -0.238932     3.348233     0.898054    -2.526727
0.018000    -1.465587    -0.783541    -0.391933     1.377346    -0.780202    -3.904263
0.019200    -1.533960     0.075365     1.058214    -0.819832    -2.616198    -0.455435
0.020400     2.984076     1.794825    -1.746204    -2.014166    -1.868215     2.911511
0.021600     1.199281     1.777710    -1.626345    -1.537606     1.293847     1.648990
0.022800     0.197352    -1.970457    -2.559488     0.516822     2.098486     0.382826
0.024000    -1.630264    -2.928950     1.274216     0.929710     0.458894    -3.772867
0.025200    -0.602204    -0.900231     2.264109     0.624312    -2.318994    -1.971361
0.026400    -1.936680     0.127350     1.350399    -2.244702    -1.776965    -0.551679
0.027600     2.358992     0.978915    -0.474999    -0.289496    -1.208010     1.426516
0.028800     1.357367    -1.366676     0.042186    -0.429770     0.402436     2.925313
0.030000    -0.397920    -2.422244    -0.509136     1.576294     1.734172     0.132159
0.031200    -2.193670    -2.315382     1.740885     1.523036     1.526166    -1.958591
0.032400    -1.824420    -0.875571     1.397523     1.185094     0.410337    -1.948234
0.033600    -0.236554     1.663595     1.100459    -2.405355    -1.306773    -1.003039
0.034800     1.231311     1.894865    -1.210813    -1.267489    -0.910414     1.752926
0.036000     1.644466    -0.868584    -1.293786    -0.614198     1.458078     3.262332
0.037200     0.243406    -1.653983    -0.535720     0.490459     1.598417    -2.103868
0.038400    -1.582340    -0.428989    -0.318399     1.176074    -1.099854    -0.881511
0.039600     0.300277    -0.365507    -0.660072     2.121614    -0.861923    -1.324456
0.040800     0.107473     1.341236    -0.046030    -2.047149    -1.903087     0.451987
0.042000     0.388725     1.177149    -1.050899    -2.602730     0.401656     1.002119
0.043200     0.059089     1.572559    -0.417431    -0.268968     1.126952     1.335892
0.044400    -0.701743    -1.332690    -0.690118     0.946338     1.243408     2.715519
0.045600    -0.963231    -1.020563     1.854000     0.847157    -0.333112    -0.776201
0.046800    -2.387011     0.631254     1.112898    -0.196430    -0.750764    -0.804297
0.048000     0.186102     0.444622     1.528699    -0.938939    -0.071532     0.427826
0.049200     0.857107    -0.808264     0.628109    -2.439725     0.368710     0.299670
0.050400     1.489952    -0.441485     0.021200    -0.216557     1.666873     1.886205
0.051600    -0.439565    -1.514369     0.259588     1.678763     0.505956     0.729734
0.052800    -1.468685    -0.463799    -0.468046     0.381722    -0.566287    -1.903482
0.054000    -1.465074    -0.878718     0.259846     0.344072    -1.258739    -0.482980
0.055200     0.035929     0.607473    -0.216141     0.051380    -0.907763     0.143405
0.056400     0.219459    -0.073424    -1.527240    -0.596259    -0.976834     1.268448
0.057600     1.318281    -0.455087    -0.752304    -1.352880    -0.037197    -2.508841
0.058800    -0.625310    -1.851044    -0.326767     0.036559     0.056915     0.955305
0.060000    -1.066268     0.052137    -0.002761     1.328210    -1.208338     0.343052
0.061200     0.814701     0.389788    -0.133535     1.383864    -1.091622    -0.669403
0.062400     0.908499     0.072071     0.823149    -1.188052    -1.957848     0.511155
0.063600     0.790031    -0.368017    -1.169789    -0.489050    -0.070159     1.303300
0.064800     0.005401    -0.484184    -0.349264    -0.524422     1.540533    -0.302188
0.066000     1.172339     0.184371     0.439680     0.087067    -1.087269    -0.010275
0.067200    -0.666598     0.018303     2.959263     1.695969     0.628133    -0.527969
0.068400     0.339703     0.710899     0.105152     1.132902     0.005400    -1.262641
0.069600     0.241107     1.139666     0.114655    -1.622841    -0.161443    -0.060889
0.070800    -0.468151     0.233663    -0.324198    -0.195245     0.861932     1.179711
0.072000     0.100998    -0.631934     2.038110    -0.775711    -0.329128     0.653274
0.073200    -0.330707     0.551694    -0.984807    -0.131554     0.471300    -1.937926
0.074400    -0.459442    -0.943129    -0.228064     0.979916    -0.963971    -0.636480
0.075600     1.183505     1.275792     1.360932    -0.999750    -0.221322     0.307688
0.076800    -0.283321     0.484753     0.825854    -0.767381    -0.285385    -0.058488
0.078000    -0.126987     0.047037    -1.743285     0.778493    -0.069373    -0.594772
0.079200     0.425514    -0.356478    -0.857796     0.848822    -0.672414     0.552241
0.080400     0.373262     0.768965    -0.625102     1.099007     0.492728    -0.393089
0.081600    -0.004637    -0.767811     1.553608     1.073327    -0.245307    -0.874510
0.082800     0.352448     0.452947     0.351936     0.098664     0.267606     0.495252
0.084000     1.560429     0.129094    -0.057400     0.437817     0.628734     0.029429
0.085200    -0.186074    -0.637067    -1.412540     0.760532    -0.044139     1.090761
0.086400     1.889282    -0.590768    -0.153490     0.790730     0.778403    -1.205395
0.087600    -0.881993     0.816253     0.516976    -0.080460     1.512880     0.022273
0.088800    -0.432844     0.362837     1.609670    -1.030263     0.653591    -0.190230
0.090000     0.606167     0.950109    -0.076758    -0.036114     0.560584    -0.033230
0.091200     1.656635     0.711094    -0.942399    -1.531293    -0.103781    -0.798989
0.092400    -0.287423     0.399207    -0.043937     0.274425    -1.390865     1.065183
0.093600    -1.973957     0.924127     1.533272    -1.329663    -0.057447     0.286787
0.094800     0.410405    -0.247798    -0.192949     0.619522     0.121755    -0.151000
0.096000    -0.717963     0.372015    -0.117621     0.484646    -0.122342     0.115037
0.097200    -0.030742     0.958440     0.218579    -0.026045     0.378576     0.148198
0.098400     0.417806     0.688658    -1.117400    -0.287455     0.017049     0.992221
0.099600     0.632596    -0.460826     0.405019     0.230768     0.583426     0.937886
0.100800     0.906942     0.140687     0.215303    -0.409235    -0.048727    -0.671727
0.102000     0.050567    -1.053762     0.318785    -0.704297    -0.971896     0.469557
0.103200    -0.242455     0.405152     0.644093     0.214217    -0.339007    -1.112955
0.104400     0.465795     0.878195     0.152096    -0.913823     0.055200    -0.247842
0.105600     0.281992     0.710766    -0.717547    -0.414545     0.687480     0.409673
0.106800    -1.427328     0.019391    -0.805007    -0.070199    -0.550565     0.889226
0.108000     0.161040    -0.055930     0.318814     0.056435     0.955529     0.364839
0.109200    -0.496877    -0.996948     0.168057     0.633564     0.611347    -0.293764
0.110400     0.037337    -0.236090    -0.405748     0.399718     0.910093     0.407439
0.111600     0.039469     0.530269     0.392407     0.397526     0.344347     0.163064
0.112800    -0.186088     0.007071     0.348831     0.355028     0.421006     0.853074
0.114000    -0.674946    -1.736714     1.327360    -0.514307    -0.296619    -0.558093
0.115200     0.166551     0.127047    -0.733001    -0.556668     0.351922     0.035320
0.116400    -0.907599    -1.569734     0.180392    -0.817428     0.589956     0.813137
0.117600     1.418546    -0.104079     1.228741     0.319424    -0.003635    -0.188978
0.118800    -0.413155     0.533873     0.923685     0.512374    -1.055543    -0.195783
0.120000     0.825807     0.202943     0.616803    -0.554494    -0.119172    -0.337804
0.121200    -0.554572    -0.739934    -1.111311    -0.329373    -0.180787    -0.351413
0.122400     0.601957    -0.187483    -0.334883    -0.081837    -0.111154     0.223206
0.123600    -0.459284    -0.760665    -0.311958    -0.109756     0.439087     0.405459
0.124800    -0.371585     0.048796     0.937488     1.159951     1.174740     0.266341
0.126000     0.049052     0.493323    -0.324746     0.276028     0.425033    -0.753788
0.127200     1.085922     0.028193    -0.950633    -0.896633    -0.328704     0.463577
0.128400     0.811713     0.260120    -1.317924    -0.052834     0.150208     0.396554
0.129600    -0.114449    -0.318611    -0.680777     0.020097    -0.371726    -0.041598
0.130800     0.356030     0.813699     0.906590    -0.501103    -0.998445     0.165705
0.132000    -0.025501    -0.479644     0.841456     0.493688     0.390726    -1.053182
0.133200    -0.151402     0.164763     0.401146    -0.548777    -0.976799     0.567026
0.134400     0.076732     0.337515     1.045903     0.565905     0.172310    -0.652603
0.135600    -0.096914     0.145694     0.118184     0.755531    -0.350685     0.570533
0.136800    -0.411624    -1.320058     0.488139     0.301982    -0.476530    -0.055040
0.138000    -0.882815    -0.709286    -0.575169     0.332406    -0.441873     0.417092
0.139200    -0.337566     1.185016     1.118188    -0.986408    -0.780159    -0.033218
0.140400    -1.210903    -0.262503     0.227679     0.655321     0.130986    -0.280748
0.141600    -1.296889    -0.090875    -0.899158     1.741507    -0.130529     0.124593
0.142800     0.554890     0.177034    -0.190617     0.078189     0.164722    -1.538939
0.144000    -0.104345     0.772663     0.023648     0.301338    -0.352337    -0.529254
0.145200     0.542486    -0.039544     0.674003    -0.013923    -0.938656    -0.651201
0.146400     0.786185    -0.384930    -1.119251     0.667525    -0.574438    -0.508560
0.147600     0.247622    -0.100965    -0.656052    -0.527941     0.277407     0.785866
0.148800     0.755005    -0.543736    -0.451308     0.512005     0.251095    -0.410018
0.150000    -0.228477     0.336578    -0.288657    -0.096852     0.015554    -0.032362
0.151200     0.531679    -0.007252     0.453323     0.921421    -0.819876    -0.188983
0.152400    -0.143327    -0.353122    -0.762265    -0.849394    -0.497168    -0.220356
0.153600    -0.069978     0.154570    -0.146246     0.421447    -1.124420    -0.955898
0.154800    -1.130183     0.768855    -0.360212     1.557748     0.103189     0.138166
0.156000     1.568457     0.471513    -0.082426     0.446347    -0.394127    -0.435159
0.157200     0.066659     0.864550     0.130925     0.569032    -0.302787    -0.509910
0.158400     0.062787     0.141313     0.505120     0.139581     0.560364    -0.166387
0.159600    -1.014929    -0.550783     0.607311    -0.055758     0.013788    -0.423043
0.160800    -0.421197     0.983140     0.023320    -0.032798    -0.228556     0.302798
0.162000     0.200264    -0.167611    -0.669591     1.234300    -0.108741     0.089736
0.163200    -0.290152     1.287283     0.477427     0.238816    -0.508862    -0.004061
0.164400     0.317614    -0.548157     0.349390     0.245208    -0.558786    -0.525137
0.165600    -0.344009    -0.944345     0.331911    -0.425530     0.850592     0.824452
0.166800     0.502529    -0.534080     0.476713    -1.261195     0.378017    -0.901388
0.168000    -0.500279    -1.046729    -0.637906    -0.752630     1.078569     0.095174
0.169200     0.442264     0.548127    -0.890353     0.331303    -0.872917     0.543544
0.170400    -0.570650    -0.585986    -0.480686    -0.440729     0.363451     0.705443
0.171600    -0.488673    -0.163405     0.525658     0.973608     0.175185    -1.342740
0.172800     0.506321    -0.634139     0.664211    -0.526976     0.226864     0.204925
0.174000     0.656022    -0.657008     0.149264    -0.053792     0.125200    -0.313264
0.175200    -0.323785     0.200944     0.888647    -0.182047     0.328210     0.386064
0.176400     1.531633    -0.255624     0.329799    -0.569132    -0.126573     0.503545
0.177600     0.216000     0.583858    -0.663460    -0.542629    -0.542930     0.584201
0.178800     0.286673     0.104711     0.956682    -0.297369     0.634159    -0.152402
0.180000     0.276346    -0.484283    -0.466992    -0.035436     0.426061    -0.256781
0.181200    -0.491048     0.133860    -0.127002     0.323357    -0.139466    -0.267505
0.182400    -0.322146     0.295091    -0.774262     0.758889    -0.314857     0.119386
0.183600     0.397684     0.043090     0.048329     0.409131    -0.165069     0.362991
0.184800     0.007530    -0.203882     0.088730     0.148489     0.656429    -0.000226
0.186000     0.222533     0.607146    -0.472631     0.465923     0.182865     0.315125
0.187200    -0.076124    -0.052071     0.370948    -0.176639     0.047725     0.050839
0.188400    -0.387570     0.767927    -0.415741     0.448497    -0.032425    -0.128076
0.189600     0.197288     0.097694    -0.349984     0.176673    -0.043980    -0.300166
0.190800     0.220721     0.992089    -0.064901    -0.737072    -0.479716    -0.025774
0.192000    -0.628558    -0.314807     0.021757    -0.081718    -0.275675     0.291688
0.193200    -0.940908    -0.526333    -0.217063     0.249388     0.405747    -0.478238
0.194400    -0.420101     0.637610     1.189234    -0.146624    -0.832254    -0.329998
0.195600     0.448756    -0.422524     0.207664     1.124575    -0.655360    -0.309989
0.196800    -0.180160    -0.652716    -0.791748    -0.437965     0.118467    -0.249444
0.198000     0.130275     0.325100    -0.548842    -0.352836     0.819409    -0.700977
0.199200     1.181555    -0.752044    -0.151679    -0.413016    -0.819444     0.660350
0.200400    -0.412238    -0.842864    -0.558551     1.005094     0.032755     0.594474
0.201600     0.504766    -0.290473     0.031618    -0.882405    -0.603931     0.682285
0.202800    -0.155447    -0.447047     0.201636     0.353958    -0.344022     0.100673
0.204000     0.165078     0.332104     0.567265     0.417186    -0.287051    -1.236909
0.205200    -0.120239    -0.173134    -0.082420    -0.565424    -0.039098    -0.117557
0.206400    -0.167683    -0.046056    -0.316897    -0.117426     0.070901     0.197235
0.207600     0.770994    -0.450990    -0.868017    -0.129492     0.410436    -0.075109
0.208800     0.002736     0.239776     0.529012     0.535499     0.593240     0.043793
0.210000    -0.141409     0.442572     0.894404     0.210682     0.009155     0.056815
0.211200    -0.080803     0.282469    -0.010953     0.090487     0.210393     0.517954
0.212400     0.281640     0.487102    -0.917973     0.536812    -0.176907     0.390865
0.213600     0.158846     0.145222     0.007502     0.688372    -0.227150     1.095870
0.214800    -0.162875     0.037350    -0.100619     0.522276    -0.665329    -0.708542
0.216000    -0.337152     0.637605    -0.274489    -0.407820     1.330624    -0.369958
0.217200     0.146799    -0.136456     0.340450    -0.116112     0.259283     0.364777
0.218400     0.222106    -0.039584    -0.929145     0.249780     0.543448    -0.195462
0.219600     0.072168    -0.040720    -1.130893     0.693508     0.105851     0.315860
0.220800    -0.846389     0.114574    -0.161400    -0.249917    -0.336943     0.899903
0.222000     0.137756    -0.629827    -0.039684    -0.086598     1.618785    -0.557832
0.223200    -0.096649     0.253734    -0.039251    -0.445600    -0.634886    -0.480470
0.224400    -0.650531     0.306963    -0.465018    -0.218612    -0.957345    -0.254859
0.225600    -0.171282     0.661625     0.372650    -0.050443    -0.223455    -0.015678
0.226800    -0.535202     0.098087     0.128228     0.140177     0.238684    -0.170795
0.228000    -0.564018    -0.597850     0.739153    -0.222760     0.075827    -0.074432
0.229200    -0.544380    -0.664738    -0.086310    -1.236920    -0.449706     0.444781
0.230400    -0.017968     0.779509    -0.066058     0.489016     0.337695     0.252132
0.231600     0.679716    -0.201628     0.259387     0.502207    -0.108100     0.439140
0.232800    -0.160672    -0.426557     0.271525     0.066185    -0.924624    -0.019351
0.234000    -0.464232     0.171424    -0.175289     0.961352     0.700848     0.342843
0.235200     0.689180    -0.305250    -0.523633     0.252433     0.243464     0.255258
0.236400     0.123435    -0.223877    -0.549077    -0.071789    -0.196268    -0.139094
0.237600     0.148733     0.004410    -0.199363    -0.359728     0.292483     0.305342
0.238800     0.255619     0.590322    -0.662592    -0.315820     0.375902     0.418235
0.240000    -0.008405     0.232454     0.341762    -0.382842    -0.173046     0.065678
0.241200    -0.163038     0.081788    -0.381599     0.709934     0.776133    -0.291192
0.242400     0.607311    -0.596967     0.168066    -0.374716    -0.142704     0.569234
0.243600    -0.206461    -0.337728    -0.106081     0.198539    -0.531870    -0.374574
0.244800    -0.548042     0.149679     0.302651    -0.125101     0.569481    -0.313715
0.246000    -0.398525    -0.201072    -0.385909    -0.141256     0.463994     0.361391
0.247200     0.516570     0.428605    -0.017379    -0.145075     0.573916    -0.221427
0.248400     0.073107     0.184611     0.236939     0.168012     0.171977     0.207693
0.249600    -0.366118    -0.038370    -0.258658     0.466195    -0.320421    -0.058810
0.250800     0.879224    -0.088659    -0.753485    -0.711706    -0.099957    -0.382628
0.252000     0.116946     0.261860    -0.377411     0.110757     0.413321    -0.656954
0.253200    -0.143076     0.342863    -0.481180    -0.022225    -0.700652     0.229752
0.254400     0.478092     0.246297     0.378615    -0.036300    -0.420479     0.169213
0.255600    -0.003692    -0.171865    -0.323263    -0.004097    -0.234841    -0.034718
0.256800     0.074404     0.011914     0.483025    -0.004172     0.223897     0.515046
0.258000     0.042148     0.685399     0.328678    -0.115045     0.596648     0.180261
0.259200    -0.205699     0.042918    -0.242663    -0.396205    -0.317483    -0.284242
0.260400     0.213215     0.392210     0.429298    -0.360091     0.157394     0.425473
0.261600    -0.362947     0.188872     0.395233    -0.801335    -0.320087    -0.898279
0.262800    -0.041872     0.681936    -0.779524    -0.221958     0.305715    -0.263709
0.264000    -0.260189    -0.033746    -0.630364    -0.343244    -0.176493    -0.384670
0.265200     0.078203    -0.065613    -0.191800     0.253219    -0.145197     0.388654
0.266400     0.473071    -0.087026     0.155510    -0.261756     0.090558     0.281864
0.267600    -0.256976    -0.554102     0.431167    -0.735019     0.196864    -0.558484
0.268800    -0.267847     0.106122    -0.817314     0.120911    -0.265420    -0.181704
0.270000    -0.077379     0.242012    -0.921952     0.306085    -1.109755     0.614304
0.271200    -0.289875    -0.338519     0.436017     0.417440    -0.300121    -0.300654
0.272400    -0.311033     0.232412    -0.083486     0.471512     0.538343    -0.287379
0.273600    -0.287541     0.296026     0.658492    -0.000537     0.400646    -0.087699
0.274800     0.295254    -0.411236    -0.029517     0.100555    -0.505704    -0.269300
0.276000     0.522055    -0.059298     0.001826     0.564114    -0.262057     0.445409
0.277200     0.117320    -0.036293     0.013118    -0.237435     0.349870     0.315925
0.278400    -0.516427     0.081248    -0.433537    -0.131300     0.168004     0.727431
0.279600     0.065216     0.249572    -0.079133     0.354486     0.255541     0.502082
0.280800    -0.224868     0.149404     0.071999     0.029459     0.005008    -0.112450
0.282000     0.117131     0.041569     0.227074     0.192614    -0.914827     0.008586
0.283200     0.365897     1.077696     0.403194     0.109100     0.444445     0.366908
0.284400    -0.700870     0.539837    -0.166461    -0.076394     0.226274     0.036145
0.285600    -0.412626     0.140077    -0.694316    -0.827359    -0.236939     0.279886
0.286800     0.196268     0.420184     0.274415     0.345751    -0.151394    -0.245759
0.288000    -0.036469     0.558083     0.260584     0.200550     0.961148     0.124465
0.289200    -0.197454    -0.567695     0.141525     0.263720     0.251783     0.423264
0.290400    -0.157969    -0.479628     0.263077    -0.402707     0.509484    -0.243260
0.291600     0.738845    -0.409252     0.026239     0.001531     0.354885     0.141565
0.292800     0.387424    -0.016618    -0.178380    -0.330435     0.386290     0.674807
0.294000     0.267401     0.013388    -0.055352    -0.304788     0.142028    -0.243217
0.295200     0.693081    -0.221565    -0.034800    -0.410867     0.422488    -0.203453
0.296400     0.298391    -0.197512     0.223451    -0.414578     0.145027    -0.241130
0.297600     0.129290     0.437278    -0.007366     0.122214    -0.269722    -0.435516
0.298800    -0.256130     0.084629    -0.170671    -0.538384     0.715178    -0.285322
0.300000     0.102631     0.174500    -0.284763     0.054900    -0.087534    -0.174879
0.301200     0.233223    -0.091682    -0.023280    -0.058645     0.003848     0.118882
0.302400     0.124290    -0.292948    -0.095523     0.037538    -0.057285     0.119579
0.303600     0.343140    -0.950388    -0.222065    -0.527166     0.414764     0.274127
0.304800     0.174353    -0.233582     0.077364    -0.006766    -0.053713    -0.067272
0.306000    -0.711234    -0.173587     0.240547     0.171808    -0.336058     0.112865
0.307200     0.326921    -0.407274    -0.051700    -0.063521     0.079117    -0.243447
0.308400     0.505647    -0.340171     0.262232    -0.361454    -0.651687     0.134112
0.309600     0.336350     0.088186     0.436212    -0.302921     0.334657    -0.014606
0.310800    -0.015812    -0.393117    -0.046999    -0.096408     0.307653     0.252643
0.312000    -0.297117     0.048829    -0.177149    -0.347936     0.769311    -0.493144
0.313200    -0.158489     0.103621    -0.119456    -0.333145     0.074533    -0.116428
0.314400    -0.260674    -0.346045    -0.273841    -0.338949     0.374178     0.215752
0.315600    -0.151505     0.114852     0.531419    -0.155937    -0.399590    -0.190291
0.316800    -0.358435    -0.106658     0.021444    -0.355951    -0.237138     0.385955
0.318000     0.393086     0.087660    -0.241099    -0.107776     0.386946     0.393747
0.319200    -0.204683    -0.398788     0.056975    -0.054651     0.310851    -0.079978
0.320400    -0.200996     0.119867     0.104645     0.192218     0.426769     0.005689
0.321600     0.347164     0.119657     0.068231     0.157936     0.358284     0.204757
0.322800    -0.540148     0.250791     0.581350    -0.178747    -0.025093    -0.372383
0.324000     0.293559    -0.726607     0.412840     0.037017     0.147813    -0.095822
0.325200    -0.059001     0.280379     0.048526     0.664333    -0.208407     0.360628
0.326400     0.185566     0.490570    -0.427449     0.258251    -0.390164    -0.114862
0.327600     0.181284     0.223148     0.321602    -0.066310    -0.213990    -0.141482
0.328800    -0.182499    -0.078257    -0.082500     0.029565    -0.101110     0.309676
0.330000     0.248330    -0.156140    -0.000124     0.260691     0.385522     0.079702
0.331200    -0.197893    -0.054810     0.037005    -0.507128     0.342890     0.281374
0.332400     0.250501    -0.190954     0.389082     0.126796     0.238138     0.127536
0.333600     0.078155     0.002171    -0.168987     0.669528    -0.130592    -0.035723
0.334800    -0.059785     0.332118    -0.304879     0.046361    -0.348239     0.073463
0.336000     0.002015    -0.023048    -0.021099    -0.104373     0.443564    -0.624111
0.337200     0.062742    -0.018389     0.330304     0.269009     0.435729    -0.516561
0.338400     0.195637    -0.529090     0.080596     0.452558     0.162031     0.032041
0.339600     0.546504    -0.237144     0.273848    -0.605768    -0.474286    -0.175225
0.340800     0.103410     0.337366    -0.554961    -0.103392     0.243207     0.388170
0.342000     0.202805     0.609870     0.060751     0.289251    -0.119152     0.223807
0.343200    -0.357295     0.080850    -0.165219     0.127555     0.246503    -0.233038
0.344400     0.021875    -0.273552    -0.006409     0.144045     0.031201    -0.263236
0.345600     0.274766    -0.052970    -0.284885    -0.228938    -0.066536     0.298770
0.346800    -0.096400    -0.298908    -0.515711    -0.189757     0.164356    -0.283829
0.348000    -0.456906    -0.298160     0.444084    -0.128297    -0.862138    -0.509637
0.349200     0.067875     0.013796    -0.095930     0.265077     0.077214    -0.601580
0.350400     0.263419    -0.344593     0.464123     0.378586    -0.382544    -0.145755
0.351600    -0.175192     0.143558     0.157189     0.073615    -0.072082    -0.125173
0.352800    -0.085727    -0.381347     0.298017     0.480598     0.415600     0.022215
0.354000    -0.350711     0.242062    -0.063795    -0.595137    -0.162458     0.379062
0.355200    -0.413667     0.077623    -0.345406     0.315444    -0.061120    -0.063858
0.356400    -0.263964     0.093609    -0.549289     0.432210    -0.220195     0.105083
0.357600     0.033624    -0.038736     0.425521     0.154138    -0.512142     0.006902
0.358800     0.498235    -0.024869    -0.561876     0.308374    -0.094489     0.287926
0.360000    -0.140252     0.024460    -0.127092     0.064382     0.425912     0.411500
0.361200     0.529029     0.298695     0.265097    -0.366548    -0.303731     0.237053
0.362400    -0.161383    -0.328551     0.015410     0.122457     0.428255    -0.081971
0.363600     0.109556    -0.075702    -0.231932     0.130199     0.054494     0.193450
0.364800     0.279136     0.225940     0.321688    -0.110822    -0.146294     0.103141
0.366000    -0.854329    -0.241433     0.206430     0.517899     0.227042    -0.266888
0.367200    -0.074316     0.351768     0.190002     0.119145     0.152313     0.264134
0.368400     0.133267     0.222739    -0.555866    -0.128678     0.054944     0.486053
0.369600     0.052601    -0.005348     0.170461     0.200010    -0.259625     0.161139
0.370800     0.062093     0.216341     0.176114    -0.228710     0.588888    -0.387378
0.372000     0.284443    -0.188886     0.098575     0.149270     0.122825     0.375932
0.373200     0.499526    -0.174936    -0.122072    -0.107303    -0.124766    -0.026065
0.374400     0.339665     0.422373     0.233941     0.146906     0.117161    -0.429685
0.375600    -0.182868    -0.204990     0.210972    -0.164266    -0.286720     0.607900
0.376800     0.188461     0.048527     0.097618    -0.100886     0.177658     0.078802
0.378000    -0.353324     0.090665     0.141370    -0.164015    -0.041372    -0.566657
0.379200     0.039824     0.064732     0.423230    -0.125118    -0.217802     0.490905
0.380400     0.496902     0.214464     0.045521    -0.344429    -0.145447     0.249554
0.381600    -0.580008    -0.286247    -0.004703    -0.030944    -0.288586     0.047991
0.382800     0.139568    -0.271727    -0.103732    -0.083364    -0.105674    -0.285956
0.384000     0.149873    -0.278445     0.197527    -0.260468     0.291785    -0.237712
0.385200    -0.010498    -0.271850    -0.108350    -0.165157     0.222245     0.517003
0.386400    -0.191651     0.396748    -0.296667     0.327542     0.436355     0.478124
0.387600    -0.136720     0.551674     0.151450    -0.106004    -0.010529     0.366674
0.388800    -0.282782    -0.342783    -0.426436     0.561753    -0.020259     0.034912
0.390000     0.134594     0.072518     0.143094    -0.060493     0.094750     0.526213
0.391200     0.218897    -0.078648    -0.399690     0.239875    -0.013580     0.056013
0.392400    -0.028631     0.374877    -0.041899     0.119263     0.045658     0.272355
0.393600    -0.052913     0.042153     0.356417     0.258960    -0.072853     0.008533
0.394800     0.274227    -0.120041    -0.350298    -0.247669     0.302532    -0.116235
0.396000    -0.060937     0.001561    -0.129342    -0.651346     0.271323    -0.113595
0.397200    -0.350480    -0.203290     0.056534     0.044500     0.269107    -0.243041
0.398400    -0.381814    -0.131507     0.199112     0.195598     0.219251     0.093219
0.399600     0.104943     0.196167     0.196411     0.065801     0.142331     0.000230
0.400800     0.468321     0.510388     0.051158     0.003307     0.004218     0.090342
0.402000    -0.291041     0.287934     0.495802    -0.364194     0.165265     0.237439
0.403200    -0.305362    -0.066400    -0.326093     0.283307    -0.019363     0.174973
0.404400     0.086890     0.270334    -0.400588    -0.204475     0.083849     0.011489
0.405600    -0.039191     0.039723    -0.157489    -0.316186     0.227506     0.417703
0.406800    -0.060132    -0.302405     0.303995    -0.198228     0.268966    -0.085118
0.408000     0.159798    -0.165946    -0.099614     0.576147    -0.306473     0.240426
0.409200    -0.462817    -0.126993     0.249856    -0.069906     0.067732    -0.047557
0.410400    -0.271938     0.833460    -0.040935     0.275298     0.109201     0.318058
0.411600     0.523601     0.241268     0.142796     0.601465     0.023859    -0.281130
0.412800    -0.225805    -0.021649    -0.069682    -0.554394     0.064024    -0.160641
0.414000     0.029303     0.041669    -0.393350     0.110852     0.260947    -0.023625
0.415200     0.018193    -0.040808     0.365112    -0.226488    -0.017469     0.105370
0.416400     0.195468    -0.128022    -0.512146    -0.195946     0.102017    -0.079717
0.417600     0.176721     0.411265     0.107999    -0.074374    -0.308446    -0.009398
0.418800    -0.346919    -0.438193    -0.080997     0.088909     0.044353    -0.009062
0.420000     0.314315     0.210517     0.243336     0.081394    -0.180424    -0.017864
0.421200    -0.274834     0.215292    -0.118555     0.212969     0.058767    -0.173941
0.422400     0.005878     0.278798     0.020298     0.047034    -0.082951     0.062814
0.423600     0.151546    -0.029807     0.121033     0.243283     0.188420     0.297494
0.424800    -0.132222     0.419252    -0.401436     0.193924     0.222497    -0.231574
0.426000    -0.163043     0.196602     0.115414    -0.099019     0.248013     0.222190
0.427200    -0.376536     0.211475     0.027717     0.309735    -0.111967     0.170746
0.428400    -0.088470     0.325053     0.392291    -0.065072     0.150316     0.433551
0.429600     0.250474     0.306018     0.177948    -0.367149    -0.256121    -0.089752
0.430800     0.019504     0.066130     0.008068    -0.069494    -0.058647     0.155640
0.432000    -0.033685     0.295663    -0.211482     0.108561     0.378603    -0.573399
0.433200    -0.328412    -0.351855    -0.124042     0.048966     0.142370    -0.187142
0.434400     0.023561     0.196447     0.034110     0.030629    -0.165270    -0.187898
0.435600     0.045120     0.046109     0.124890     0.007348    -0.053571    -0.156884
0.436800    -0.252075     0.379796    -0.220874     0.490091     0.159408    -0.019043
0.438000    -0.267056     0.540463    -0.060802    -0.256319     0.251193    -0.200875
0.439200     0.079312    -0.298600    -0.007857    -0.015089     0.013141     0.057661
0.440400    -0.063282     0.393187     0.135234     0.139619     0.489816    -0.279233
0.441600    -0.272538     0.218280    -0.074708    -0.138225     0.158745     0.116646
0.442800     0.110802    -0.033980    -0.075114     0.214896     0.075299     0.149973
0.444000    -0.309093    -0.064650     0.449730    -0.225166     0.017809     0.018503
0.445200    -0.276324    -0.067550     0.033604     0.076753     0.319541     0.007120
0.446400     0.168608     0.149680    -0.084697    -0.133956    -0.144887    -0.218375
0.447600     0.167260     0.085736     0.070710     0.276686     0.066029     0.082909
0.448800     0.131603    -0.238111     0.090961    -0.317022     0.427748    -0.254730
0.450000    -0.013744    -0.139585    -0.113248    -0.411443    -0.101844     0.051169
0.451200     0.430106     0.124916    -0.087391    -0.157046     0.282827     0.358159
0.452400    -0.180970    -0.199203    -0.244420     0.094164     0.019781     0.206933
0.453600     0.005994     0.005193    -0.081053     0.152180     0.051338     0.398761
0.454800     0.076879    -0.062515    -0.059516     0.161095    -0.373511    -0.011162
0.456000     0.248510    -0.169812     0.028918     0.206036     0.215519    -0.748840
0.457200     0.159126     0.012319    -0.257426    -0.178617    -0.279772    -0.297177
0.458400    -0.443668    -0.208490    -0.186728     0.037894    -0.047846    -0.399067
0.459600     0.167050     0.013014     0.117050     0.090090     0.154392    -0.065220
0.460800     0.310207    -0.208747     0.308363    -0.571851     0.281053    -0.248926
0.462000     0.077906     0.308657     0.155711    -0.010987    -0.305693    -0.021691
0.463200    -0.340285    -0.108777     0.023262     0.312747    -0.169653    -0.224722
0.464400     0.263526     0.134422     0.139696     0.010964     0.027309    -0.206035
0.465600    -0.072679    -0.052800    -0.067922    -0.146409     0.167719     0.046015
0.466800    -0.112521     0.368311    -0.267778    -0.185792    -0.057793     0.047339
0.468000     0.133908    -0.229209     0.041853     0.075025     0.070050     0.211779
0.469200     0.190360    -0.124959     0.207479    -0.275110     0.420531    -0.165577
0.470400    -0.091207     0.083714     0.057471     0.176407     0.349807     0.254780
0.471600    -0.179506     0.032795     0.032205     0.459480    -0.092437    -0.039371
0.472800    -0.013804    -0.218992    -0.028057     0.189493     0.155540    -0.124908
0.474000    -0.076317     0.129032    -0.018175    -0.160826     0.313158    -0.289046
0.475200    -0.126166     0.005688     0.058138    -0.154022    -0.192523     0.268841
0.476400     0.242811     0.168257    -0.154660    -0.045829    -0.241608     0.138582
0.477600    -0.006690    -0.067718    -0.010546     0.178901    -0.051518     0.038643
0.478800    -0.041077     0.062236     0.093911    -0.116115    -0.418996     0.140057
0.480000    -0.330642     0.094318    -0.059082    -0.117710     0.299312    -0.005443
0.481200    -0.116415    -0.362504     0.172660    -0.272581    -0.392454     0.341597
0.482400     0.052839     0.086948     0.015205    -0.099791     0.444006     0.152819
0.483600    -0.002566     0.126610     0.282652     0.264641    -0.075437    -0.097802
0.484800    -0.007062    -0.135112    -0.034888    -0.111057    -0.204966    -0.022861
0.486000    -0.327712    -0.034735     0.050747     0.326107     0.141169     0.291493
0.487200    -0.314550    -0.031737    -0.102208     0.012814     0.327629     0.117761
0.488400     0.048740    -0.256718     0.245315    -0.185861    -0.053387    -0.079519
0.489600     0.575260     0.210115    -0.165691     0.150206    -0.023161    -0.112361
0.490800    -0.082177     0.202954    -0.248768    -0.084718    -0.356730     0.072001
0.492000     0.365803     0.118230     0.282387    -0.314801    -0.196772     0.383006
0.493200     0.004283    -0.283336    -0.152907     0.007030     0.135649     0.137363
0.494400     0.044183    -0.031289    -0.124689    -0.209381     0.053814     0.189728
0.495600    -0.038946     0.116500    -0.004998     0.108485    -0.153482    -0.000310
0.496800    -0.044288     0.019046    -0.083177     0.200031    -0.139464    -0.027568
0.498000     0.099586     0.036112     0.058537     0.064397     0.187862     0.028721
0.499200    -0.308022    -0.327284    -0.025698    -0.131623    -0.025696     0.108130
0.500400     0.083332     0.132387    -0.007385    -0.258165     0.249470     0.413437
0.501600     0.118199    -0.037547     0.212744    -0.073511    -0.084035    -0.049840
0.502800     0.018963    -0.270754     0.290851     0.152010    -0.386073    -0.083341
0.504000     0.049070    -0.266407    -0.172427    -0.485090     0.050988    -0.048780
0.505200    -0.066051    -0.272718    -0.040562     0.257677    -0.229226    -0.247367
0.506400    -0.192816    -0.271421     0.019278    -0.109407    -0.256752    -0.170255
0.507600    -0.031575    -0.030825     0.008872     0.132924    -0.117462    -0.059910
0.508800    -0.226163     0.069093    -0.184307     0.051827    -0.094453     0.160374
0.510000    -0.050998     0.132989    -0.067729    -0.173297     0.093060    -0.268795
0.511200    -0.345841     0.067661     0.047409    -0.268929     0.150006    -0.039545
0.512400    -0.199850     0.200457    -0.172788    -0.185283     0.010453    -0.090547
0.513600    -0.048295     0.111299     0.083137     0.184374    -0.069791    -0.138928
0.514800     0.119053     0.119395    -0.167950     0.076649    -0.110865    -0.082741
0.516000    -0.082809     0.105830     0.108636     0.017511    -0.078090     0.229196
0.517200     0.077055     0.119184    -0.007180    -0.110261    -0.101565    -0.383387
0.518400    -0.047307    -0.311549    -0.321840     0.087986     0.003756    -0.269712
0.519600     0.375189    -0.116960    -0.297953    -0.069351    -0.164121     0.123808
0.520800     0.161144    -0.053208    -0.219602     0.215716    -0.071242    -0.116109
0.522000    -0.164869     0.043304     0.150242    -0.354329    -0.062080     0.009362
0.523200     0.022186     0.129702    -0.020845    -0.098564    -0.250745    -0.010996
0.524400     0.219535     0.096604    -0.112350     0.013041     0.040275     0.114566
0.525600     0.039694    -0.254855     0.042200    -0.032690    -0.147963     0.096157
0.526800    -0.375200    -0.054563     0.024763    -0.239727     0.129183    -0.399776
0.528000     0.128259    -0.189488    -0.091907     0.150962     0.051444     0.231324
0.529200     0.031153     0.125184     0.271375     0.131413     0.177053    -0.341612
0.530400     0.064040    -0.107182    -0.613476    -0.002743    -0.045155     0.030230
0.531600     0.206484    -0.334863    -0.055772     0.053755     0.034663    -0.061322
0.532800    -0.050795     0.185944     0.369765    -0.135673    -0.119370     0.100427
0.534000     0.071571     0.097423     0.046461    -0.094792    -0.363256     0.128710
0.535200     0.083517     0.243645     0.044497    -0.273120     0.045858    -0.009772
0.536400     0.022123     0.081849    -0.216104    -0.174280     0.144620    -0.069554
0.537600     0.021934     0.026504     0.261304    -0.117488     0.323474    -0.096388
0.538800    -0.128380    -0.021811     0.000884    -0.019921    -0.119707     0.128786
0.540000    -0.106953    -0.014987    -0.214133    -0.310252    -0.077904     0.138719
0.541200     0.059809     0.164162     0.012446    -0.045934    -0.235243     0.071765
0.542400     0.108860    -0.028156     0.121531    -0.177859    -0.187987    -0.023748
0.543600    -0.123618     0.123911     0.048675    -0.011234    -0.003257    -0.055086
0.544800     0.001977    -0.045688    -0.025822     0.182621     0.067635     0.199254
0.546000    -0.033638    -0.090561    -0.027895     0.251710    -0.013392    -0.011116
0.547200    -0.075801    -0.014770    -0.081910     0.043978     0.080690    -0.038162
0.548400    -0.214560     0.059062     0.135154     0.105887     0.069994     0.004190
0.549600    -0.053955     0.079206     0.052859     0.067038    -0.173056     0.135582
0.550800    -0.084518    -0.010696    -0.035413     0.084333    -0.101714    -0.133850
0.552000    -0.175195    -0.196762     0.120446    -0.248976     0.161740     0.095710
0.553200    -0.028167     0.119277     0.187750    -0.031726    -0.046173     0.266559
0.554400     0.084669    -0.059881    -0.073922    -0.114240    -0.120725    -0.078272
0.555600    -0.119196    -0.110640    -0.571332     0.203282    -0.002995    -0.234173
0.556800     0.087604     0.073583    -0.061446    -0.182047     0.257545     0.110277
0.558000     0.008262    -0.114763    -0.270051     0.120823    -0.031057    -0.148499
0.559200    -0.307661    -0.194663     0.044256     0.188606     0.003498    -0.016519
0.560400    -0.021404     0.018399     0.161234    -0.149131     0.134088     0.256815
0.561600    -0.098736     0.519501     0.143709    -0.023253    -0.280489    -0.338786
0.562800    -0.159929     0.043795     0.023711     0.096173     0.377189     0.043240
0.564000     0.148761     0.139111    -0.262758    -0.001286     0.125089     0.074247
0.565200    -0.053376    -0.170236    -0.051404     0.344585     0.262356    -0.239316
0.566400    -0.104338    -0.048239     0.184110     0.171469    -0.075390    -0.372295
0.567600    -0.018920    -0.220162    -0.199710     0.060881    -0.124498    -0.053557
0.568800     0.054088    -0.241786    -0.103366    -0.067496    -0.006002     0.018919
0.570000     0.050621     0.352912     0.066876     0.097337     0.242230     0.111304
0.571200     0.143556    -0.144390     0.113041    -0.000382    -0.026968    -0.196453
0.572400     0.119943    -0.058157     0.041434    -0.008415    -0.075595    -0.174306
0.573600     0.333415    -0.146208    -0.022227     0.104687    -0.009052    -0.049965
0.574800     0.187572    -0.084222     0.095487     0.079687    -0.063015    -0.052903
0.576000     0.182701    -0.031781    -0.065067    -0.043762     0.004071    -0.135198
0.577200     0.251992    -0.042384    -0.039198    -0.282674    -0.232364    -0.008564
0.578400    -0.032803     0.095328    -0.132374     0.111929     0.253543    -0.122408
0.579600    -0.037493     0.033041     0.081670     0.169895    -0.000363    -0.213549
0.580800    -0.094277    -0.296370    -0.019729    -0.046748     0.039901    -0.013266
0.582000     0.051873    -0.229336    -0.201423    -0.145414    -0.199970     0.011814
0.583200     0.182336    -0.040077     0.005979     0.268719    -0.057574     0.137407
0.584400     0.105678    -0.111208     0.017452    -0.063168     0.219834     0.265810
0.585600    -0.119016     0.064496    -0.032386     0.029372     0.031285     0.023198
0.586800    -0.065233    -0.051301     0.187623     0.041105    -0.109187    -0.044649
0.588000     0.159173     0.082512     0.331430    -0.040951    -0.237451    -0.263012
0.589200     0.290626     0.190371    -0.121720     0.030397    -0.007418    -0.253697
0.590400     0.054449    -0.135546     0.026893     0.373166    -0.073836    -0.131421
0.591600     0.097744     0.225527     0.064055    -0.044767     0.225980     0.058408
0.592800    -0.016352     0.134877    -0.008805     0.003818    -0.244833    -0.055151
0.594000     0.035082    -0.157955    -0.075733    -0.175249     0.292175     0.043121
0.595200     0.013586     0.138422     0.015468    -0.045815     0.065594    -0.122893
0.596400    -0.355783    -0.088186    -0.177896     0.096877     0.127481     0.113525
0.597600    -0.085555     0.057538     0.010786     0.009371     0.021114    -0.083569
0.598800     0.250716     0.169693    -0.253076    -0.083047     0.103500     0.161111
0.600000    -0.010250     0.179525     0.201111    -0.017266    -0.008628     0.092444
0.601200     0.033555     0.033434    -0.125514    -0.198401    -0.263546     0.021711
0.602400    -0.007898    -0.076520     0.092725     0.101529    -0.095823    -0.079119
0.603600    -0.030768     0.081246     0.163466    -0.008605     0.057111    -0.022704
0.604800     0.011864     0.097427    -0.005879    -0.085889     0.046932     0.167434
0.606000    -0.128603     0.222505     0.013802     0.040914     0.122491     0.073881
0.607200    -0.071029    -0.097592    -0.273209    -0.251850    -0.162628     0.067558
0.608400    -0.005905     0.063495    -0.124890    -0.027763     0.024061     0.004911
0.609600     0.135707    -0.166925    -0.129308     0.081218     0.073968    -0.157027
0.610800     0.002246    -0.123002    -0.152951     0.261373    -0.138206    -0.148153
0.612000     0.008928    -0.150160     0.051924    -0.090431    -0.235061    -0.122753
0.613200    -0.031769     0.048946     0.049288     0.095596    -0.071550    -0.087710
0.614400    -0.054253    -0.131121     0.096306    -0.017349     0.234497     0.040866
0.615600    -0.276076     0.102482    -0.216073    -0.105588    -0.103764    -0.238750
0.616800    -0.081983     0.120257    -0.053770    -0.053376    -0.112808     0.012965
0.618000     0.079355     0.022820     0.069205     0.115115     0.115959     0.009034
0.619200     0.152858    -0.008636    -0.066147     0.276629    -0.066952     0.224905
0.620400     0.074726     0.023682    -0.184660     0.024197    -0.193075    -0.229217
0.621600     0.041602    -0.158951    -0.025015    -0.167014     0.157086    -0.102407
0.622800     0.117007    -0.199382    -0.133442     0.037763    -0.158920     0.239800
0.624000     0.117013    -0.132274    -0.165791     0.197763     0.242678     0.194704
0.625200     0.268961     0.049518    -0.047578    -0.152743     0.148244    -0.031384
0.626400     0.121743     0.066830     0.016151    -0.105105    -0.063643     0.211582
0.627600    -0.019853     0.025317    -0.220386     0.179443     0.078345     0.132526
0.628800     0.052917    -0.101378     0.037755    -0.003203     0.023624    -0.116557
0.630000    -0.001704    -0.142561    -0.016669     0.096590    -0.064325    -0.340740
0.631200    -0.221887    -0.180593    -0.054798    -0.102154    -0.018512     0.141051
0.632400     0.306914     0.015413     0.205520     0.084532    -0.119288     0.025687
0.633600     0.180054     0.033861     0.242279     0.042102     0.012675     0.210362
0.634800     0.094837    -0.047009     0.008253     0.190136    -0.162324     0.091690
0.636000    -0.315351    -0.082559     0.057358    -0.027925    -0.142336    -0.074679
0.637200    -0.042489     0.099524     0.019729     0.042078     0.043140    -0.196150
0.638400    -0.003106    -0.090151     0.044243    -0.101169     0.041117     0.061319
0.639600    -0.166699     0.066489     0.034585     0.147660    -0.163837     0.086085
0.640800     0.057802     0.086524     0.018742     0.128428     0.271493    -0.124138
0.642000    -0.137434    -0.133607    -0.034916    -0.162383     0.143767    -0.058822
0.643200    -0.081763     0.072101     0.027208     0.052730     0.025421    -0.032114
0.644400     0.067300    -0.106619    -0.072028     0.116330    -0.109083    -0.113252
0.645600    -0.065308    -0.010278     0.163436     0.089719     0.091255    -0.020743
0.646800    -0.032544     0.015702    -0.017133     0.020141    -0.046865    -0.024091
0.648000    -0.017530    -0.039730     0.055397     0.193972    -0.120736     0.018082
0.649200    -0.013835     0.216897     0.015794     0.165714    -0.104594    -0.173147
0.650400     0.134698     0.232561     0.101422    -0.026437    -0.057446    -0.051446
0.651600    -0.111465     0.077581    -0.041982     0.023917     0.178923     0.024824
0.652800    -0.105542    -0.064196     0.052636    -0.059161    -0.034108    -0.171195
0.654000    -0.055683     0.038870    -0.091172     0.005499    -0.178842    -0.101171
0.655200     0.103384    -0.074378    -0.017737    -0.037651    -0.052370     0.092169
0.656400    -0.227757    -0.133986     0.122110     0.036397     0.087308     0.174330
0.657600    -0.089001    -0.172634     0.032028    -0.183290     0.002465    -0.190141
0.658800     0.166251    -0.196075     0.104570    -0.096889     0.003048    -0.133530
0.660000    -0.045111    -0.003983    -0.079627    -0.099403    -0.086802    -0.096306
0.661200     0.142900     0.063772     0.075037    -0.019974     0.011014     0.107429
0.662400    -0.164651     0.184612     0.124958     0.009583     0.104463     0.020358
0.663600    -0.176574     0.196230    -0.057141    -0.086527     0.009324    -0.075866
0.664800    -0.094713     0.103278     0.006958    -0.130864    -0.308521     0.049159
0.666000     0.105176    -0.002505    -0.071830     0.216217    -0.083232    -0.042084
0.667200    -0.013376     0.129623     0.026180    -0.004409    -0.129417     0.002994
0.668400    -0.118297    -0.071455     0.195625    -0.022895    -0.036317     0.078494
0.669600     0.179591    -0.039607     0.047384    -0.042660    -0.067209    -0.008447
0.670800    -0.041679    -0.006062    -0.001025     0.062006     0.142076    -0.015635
0.672000     0.118684     0.083494     0.035180     0.025197     0.171648     0.077747
0.673200    -0.106950     0.008393     0.012846     0.174451    -0.045045     0.093853
0.674400    -0.050886     0.108374    -0.134281    -0.172198    -0.340959     0.024321
0.675600    -0.084850     0.014343     0.087765    -0.090196    -0.030628     0.173167
0.676800     0.040278     0.036616     0.049325     0.054920     0.062143    -0.067206
0.678000     0.106024    -0.237091    -0.021894     0.219486    -0.134588    -0.049156
0.679200     0.050718    -0.122757     0.085641    -0.102539     0.066216    -0.062406
0.680400     0.074041     0.027269     0.038570    -0.009701     0.114068     0.002185
0.681600     0.007164    -0.098726    -0.096500    -0.130793    -0.105636     0.140817
0.682800     0.084929    -0.179900     0.144972     0.066469     0.023584     0.043206
0.684000    -0.029993     0.091695    -0.198480    -0.143544    -0.048543     0.016768
0.685200    -0.135287    -0.302192    -0.049514    -0.096892     0.073948     0.076955
0.686400     0.032072    -0.014771     0.115723     0.044584     0.016044     0.031040
0.687600     0.057517     0.384152     0.087036     0.097786    -0.050281     0.001166
0.688800    -0.059025    -0.068641     0.004410    -0.015041     0.080559     0.031540
0.690000    -0.106985    -0.156407     0.006916    -0.099348    -0.083574     0.063779
0.691200    -0.086311    -0.020860     0.012963     0.167830     0.100705     0.205865
0.692400    -0.034311    -0.103815     0.177400     0.000203    -0.131015     0.005396
0.693600     0.023902     0.174482    -0.108820    -0.191959    -0.213930    -0.242933
0.694800    -0.056439    -0.109852    -0.004369    -0.118150    -0.031897    -0.223246
0.696000    -0.031395     0.069048     0.032189    -0.025628    -0.085357    -0.027544
0.697200     0.008720     0.041489     0.059560    -0.073188    -0.098333     0.006485
0.698400    -0.003999    -0.120707    -0.018837    -0.095787    -0.011189     0.024318
0.699600     0.221608     0.055412     0.110342    -0.084058    -0.048404    -0.101545
0.700800    -0.048411     0.057462     0.020183    -0.001097    -0.244094    -0.117863
0.702000    -0.051331    -0.028288     0.219426    -0.025768     0.054398     0.080318
0.703200     0.130490     0.086834     0.119338     0.074038     0.069356    -0.014475
0.704400     0.052345     0.047030     0.220639     0.036370     0.048856     0.156730
0.705600    -0.182333    -0.132384     0.001258     0.227170    -0.125681     0.055386
0.706800    -0.134935     0.021656    -0.245220    -0.036371    -0.105814     0.001285
0.708000     0.040329    -0.060680     0.006701    -0.176087     0.064535     0.051908
0.709200     0.144206    -0.155176     0.037293    -0.101871     0.005639     0.043858
0.710400    -0.033012    -0.012957     0.041520    -0.111243     0.117886    -0.136153
0.711600    -0.070730     0.025489     0.139423    -0.124204     0.018370     0.016067
0.712800    -0.073168     0.062670     0.099026     0.121194     0.068633     0.043680
0.714000    -0.062409    -0.086152     0.016486     0.016412    -0.126340     0.152210
0.715200     0.077218    -0.066505     0.096399     0.015140     0.058384    -0.016357
0.716400    -0.244799     0.040877    -0.029290     0.113125     0.133034    -0.027816
0.717600     0.033740     0.026231     0.004861     0.026216     0.041295     0.074309
0.718800     0.124234     0.095231     0.019683     0.114701     0.077039    -0.193664
0.720000    -0.002809     0.055154     0.052338     0.113311    -0.151620     0.095762
0.721200     0.110189    -0.042951     0.081754     0.028908     0.092685     0.101871
0.722400     0.059843     0.002390    -0.042346     0.018657     0.010175     0.117120
0.723600     0.045174    -0.009924     0.005586     0.073997    -0.067143     0.041323
0.724800     0.003639    -0.045292    -0.058079     0.054254     0.094771     0.077038
0.726000     0.056370     0.109846     0.012582     0.023729    -0.033249     0.026000
0.727200    -0.113785    -0.030301    -0.057534     0.046461     0.051931    -0.179645
0.728400    -0.040880     0.084941    -0.139754    -0.041077     0.015883    -0.077575
0.729600     0.069360     0.004414    -0.068865    -0.109006    -0.032570     0.171103
0.730800     0.114057    -0.167896    -0.092264    -0.098607     0.020523    -0.090994
0.732000     0.102580     0.161934    -0.121341    -0.040990    -0.017010    -0.090565
0.733200     0.003642     0.030900    -0.203125    -0.060238     0.162909     0.049170
0.734400    -0.004010    -0.029174    -0.021321    -0.041698     0.151958    -0.105656
0.735600    -0.008481     0.022573    -0.121855    -0.084169     0.046144    -0.106836
0.736800    -0.022249     0.002324    -0.042583     0.073247    -0.124245     0.083665
0.738000    -0.007784     0.032799    -0.169547    -0.016507     0.093875    -0.061676
0.739200    -0.141514     0.047431    -0.070674    -0.037093    -0.194367    -0.040752
0.740400     0.117423     0.050180    -0.017532    -0.076047    -0.046186    -0.098215
0.741600     0.081576    -0.013933     0.113665     0.002183    -0.015968    -0.107315
0.742800     0.006009    -0.088047     0.115993     0.041108     0.038129    -0.094826
0.744000     0.048044     0.033733    -0.002616    -0.051956     0.004439    -0.011266
0.745200     0.023427     0.134531     0.054848     0.170674     0.139214     0.026418
0.746400    -0.167797     0.096002     0.026427    -0.012522    -0.161880     0.065651
0.747600     0.138112    -0.012817    -0.023788    -0.029316     0.033612     0.119791
0.748800    -0.015875     0.038858    -0.035312     0.033701    -0.019220     0.079580
0.750000    -0.014073    -0.121145    -0.034647     0.230297     0.131339     0.042782
0.751200    -0.097223     0.018059    -0.015809     0.023935    -0.053091    -0.114634
0.752400    -0.081137    -0.115625    -0.059094     0.066905    -0.056360     0.026711
0.753600     0.058979     0.047432     0.029549    -0.035902     0.037601    -0.121175
0.754800    -0.032800     0.225472     0.056716     0.000362    -0.042794    -0.096480
0.756000     0.054875    -0.111638    -0.112670    -0.091078     0.010367     0.012187
0.757200     0.171015    -0.127867    -0.086293    -0.047815    -0.115704     0.110138
0.758400     0.068974    -0.042459     0.057802     0.087160     0.108675     0.095580
0.759600     0.021214     0.019000     0.026124    -0.028085     0.033195    -0.054454
0.760800     0.041153     0.125332     0.093125    -0.167135    -0.101700    -0.050210
0.762000     0.077385    -0.035692     0.160262     0.019873     0.031808     0.048433
0.763200    -0.004570    -0.011799    -0.047041    -0.189101    -0.000933     0.052069
0.764400    -0.059020    -0.024671    -0.046173     0.014068     0.021769    -0.043416
0.765600    -0.064423     0.145527     0.013762    -0.001752     0.024221     0.065004
0.766800    -0.031664     0.024673     0.007514    -0.000098    -0.073539    -0.152097
0.768000     0.050635     0.037413    -0.039939     0.102983    -0.054020     0.019290
0.769200     0.110878     0.017056     0.096739    -0.030018     0.065775     0.136158
0.770400     0.069295    -0.051373     0.075321     0.034184     0.057876    -0.001356
0.771600    -0.031599    -0.036707    -0.096389     0.099255    -0.056370    -0.154137
0.772800     0.056357     0.070925    -0.141637    -0.008046     0.081323    -0.132037
0.774000     0.162651    -0.065984    -0.000903     0.006089     0.184951     0.101471
0.775200    -0.073184     0.027757     0.046366    -0.020940     0.012589    -0.005594
0.776400     0.097356    -0.019651    -0.037727     0.045586    -0.042263    -0.067380
0.777600    -0.109721     0.000511    -0.063090    -0.124813    -0.009567     0.084581
0.778800     0.004271     0.024056    -0.019718    -0.108850     0.032004    -0.075069
0.780000     0.036542    -0.050382     0.064574     0.069698     0.123595     0.074144
0.781200     0.042896     0.149199    -0.069423     0.009969    -0.029499     0.053143
0.782400    -0.114467     0.000345    -0.032147     0.030536     0.144810    -0.001153
0.783600    -0.129707    -0.000803     0.055957     0.005708    -0.067717     0.018468
0.784800    -0.029262     0.034565     0.133661    -0.080592    -0.025846     0.078682
0.786000    -0.097588     0.136237     0.060321    -0.008510     0.020078    -0.027201
0.787200     0.063200     0.058719    -0.063940    -0.039503    -0.020123     0.027937
0.788400     0.041283    -0.099457     0.016611    -0.047325    -0.019949     0.041243
0.789600     0.008932     0.015587    -0.074934    -0.049178    -0.077823     0.006308
0.790800    -0.040235     0.005834    -0.067560     0.178805    -0.029871     0.076061
0.792000     0.034842    -0.023017    -0.033035     0.061678     0.002328    -0.017729
0.793200    -0.026509     0.058108    -0.160730    -0.157374    -0.031209     0.041952
0.794400    -0.066787     0.001173    -0.014109     0.015705     0.094604    -0.003734
0.795600     0.009021    -0.050199    -0.000584     0.055037     0.147473     0.050169
0.796800     0.122901     0.021294    -0.019437     0.004916    -0.017729    -0.009652
0.798000    -0.104556    -0.015168    -0.123889    -0.020850     0.053127     0.020858
0.799200     0.016077     0.061326     0.010042    -0.100748     0.020004    -0.003477
0.800400    -0.008422    -0.050652    -0.038630     0.143989     0.093656    -0.009095
0.801600     0.065095    -0.033348    -0.040577     0.003945     0.001962    -0.014052
0.802800     0.100132     0.047506     0.121830     0.018413    -0.040219     0.108757
0.804000     0.057925    -0.021391    -0.032185    -0.009648    -0.048484     0.039422
0.805200     0.101591     0.121341     0.025717    -0.026532    -0.057692     0.065002
0.806400    -0.051444     0.156141    -0.001851     0.032357    -0.000340     0.062591
0.807600    -0.154065     0.050029     0.131614    -0.095975    -0.097599     0.062094
0.808800    -0.113223     0.145264     0.124851     0.099688    -0.005068     0.178503
0.810000    -0.071986     0.020726    -0.042077     0.098703    -0.088225    -0.057129
0.811200     0.022010     0.076779     0.093699     0.006940    -0.012249    -0.143638
0.812400     0.090554     0.005703    -0.043178    -0.007148    -0.001794     0.014270
0.813600     0.078176     0.097759     0.012660    -0.069334     0.081665     0.012640
0.814800     0.065775    -0.031886     0.033234     0.076294    -0.075708    -0.135182
0.816000    -0.019472    -0.112478     0.018472     0.050958    -0.086259    -0.040486
0.817200    -0.032515    -0.052447     0.041152    -0.070726     0.015371    -0.008908
0.818400    -0.084280     0.085350    -0.059486    -0.143950     0.036023    -0.065811
0.819600    -0.039615     0.030758    -0.049070     0.002593    -0.043269    -0.002553
0.820800     0.143045     0.006253     0.050251     0.007827    -0.130270     0.012671
0.822000    -0.059519    -0.024216     0.052596     0.159519    -0.065637    -0.063764
0.823200    -0.089741    -0.108325     0.032568     0.038376    -0.022528    -0.006251
0.824400    -0.064547     0.054606    -0.153884    -0.103926     0.023338    -0.114353
0.825600     0.041989     0.011003     0.044096    -0.020451    -0.037140    -0.010605
0.826800    -0.051314     0.043417    -0.028967     0.078778    -0.089290    -0.060157
0.828000    -0.072771     0.081763    -0.078311     0.034376    -0.043012    -0.006642
0.829200     0.037507    -0.013447     0.107690     0.036977     0.125745    -0.048219
0.830400     0.072303     0.130675     0.067894    -0.014026     0.066340     0.079788
0.831600    -0.085377     0.076353     0.003124     0.044958    -0.184211     0.171345
0.832800    -0.038313    -0.164068     0.037745    -0.038009     0.014363    -0.049688
0.834000     0.042334     0.056763     0.113748     0.008906    -0.009154    -0.147256
0.835200    -0.053570    -0.022495    -0.037292    -0.046657     0.020231    -0.038010
0.836400    -0.008779    -0.000876     0.004990     0.027521     0.026440     0.113289
0.837600     0.009604     0.065027     0.048185    -0.027089     0.038751     0.067710
0.838800    -0.035358    -0.021604    -0.065988     0.029607     0.079179     0.145820
0.840000    -0.110229    -0.042435     0.025716    -0.035271    -0.073707     0.117830
0.841200    -0.071228     0.002213    -0.054885    -0.018895    -0.033406     0.128421
0.842400    -0.059119     0.014177     0.000214    -0.107873    -0.093083     0.114116
0.843600     0.067400     0.054542     0.004575     0.033431     0.050176     0.030438
0.844800     0.014525    -0.156930    -0.120331     0.037366    -0.061879     0.059651
0.846000    -0.031080    -0.127352    -0.012001    -0.033439    -0.000568     0.102916
0.847200    -0.100921    -0.044854     0.008769     0.026581    -0.039129    -0.078894
0.848400     0.016533     0.055933     0.019878     0.078400     0.071272    -0.180226
0.849600     0.018023     0.070904     0.075012    -0.089447    -0.040035    -0.047436
0.850800     0.158200     0.099855     0.102765     0.049011    -0.016154     0.051292
0.852000     0.025539     0.023144    -0.011162     0.034916     0.005538    -0.091697
0.853200    -0.021816     0.035306    -0.015141     0.073225     0.008401    -0.026286
0.854400     0.059888     0.027440     0.020568     0.032366    -0.030124     0.041564
0.855600    -0.058507     0.046644     0.052078     0.082804    -0.085562    -0.051671
0.856800    -0.036598     0.094915     0.001978     0.019058    -0.032882     0.016727
0.858000    -0.069166    -0.002552     0.002143    -0.066732    -0.147542    -0.082471
0.859200     0.030403    -0.035014     0.020339    -0.106937     0.145868    -0.006922
0.860400    -0.035217    -0.062911    -0.079565    -0.037358    -0.009910    -0.009651
0.861600    -0.002808     0.024403    -0.075594    -0.082592    -0.020226    -0.015166
0.862800    -0.015963     0.062601    -0.027327     0.006852    -0.061298    -0.132235
0.864000     0.024615    -0.062972    -0.030107     0.011068    -0.007837     0.053069
0.865200     0.033764    -0.023743    -0.078885    -0.025275     0.103262     0.079298
0.866400     0.029134    -0.028561    -0.031578    -0.031142     0.039628     0.038285
0.867600    -0.061489    -0.033237    -0.065874     0.087967     0.005033    -0.053819
0.868800     0.088272     0.072385     0.036888     0.061552     0.068773     0.005603
0.870000    -0.006691     0.070267    -0.039485     0.000452     0.074940     0.074966
0.871200     0.115286    -0.001014     0.014733     0.029679     0.028034    -0.005313
0.872400     0.014858     0.038354    -0.132519    -0.037447    -0.075290     0.031905
0.873600     0.028575     0.039039     0.094981     0.010617     0.071035     0.027147
0.874800    -0.050827    -0.118536    -0.068147     0.072370     0.044805    -0.027267
0.876000     0.024057    -0.028074     0.159437    -0.014891     0.145791     0.021865
0.877200     0.058439    -0.074709     0.046951    -0.010260     0.055774    -0.056144
0.878400     0.035284    -0.022001    -0.007622    -0.041182    -0.037917    -0.004720
0.879600    -0.072452    -0.029807    -0.085774     0.011924     0.016324     0.028479
0.880800    -0.004860    -0.000036    -0.005210     0.067041    -0.016530    -0.102176
0.882000     0.097539     0.005816    -0.004720    -0.109525    -0.000748    -0.051644
0.883200     0.027945     0.051252    -0.012948     0.047505    -0.033990     0.030054
0.884400     0.003108    -0.041512     0.033364    -0.020942    -0.081359     0.030696
0.885600     0.041569     0.022155    -0.052134     0.066281    -0.029110     0.056349
0.886800    -0.075471     0.082713     0.077021     0.047418    -0.136195    -0.117388
0.888000    -0.020338     0.016244    -0.020873    -0.038900     0.033562    -0.001752
0.889200    -0.016803     0.061901    -0.041616    -0.078653     0.020318    -0.000274
0.890400    -0.046383     0.061354    -0.098277    -0.097284    -0.004190    -0.027995
0.891600     0.040189     0.027400    -0.025883    -0.103322     0.035142     0.045435
0.892800    -0.036289     0.011287     0.002670    -0.058547     0.035925    -0.044642
0.894000     0.010100    -0.105710    -0.002783    -0.016004    -0.003869    -0.013237
0.895200    -0.059164     0.021078    -0.065111    -0.000712    -0.028313    -0.032408
0.896400    -0.011767    -0.140290     0.022403    -0.076949     0.020462    -0.009525
0.897600     0.034887     0.001751    -0.080123    -0.000880     0.047012     0.015205
0.898800    -0.022351     0.025641    -0.013604     0.074745     0.001004     0.061639
0.900000    -0.031560    -0.060037     0.051016     0.000124     0.050043     0.014348
0.901200    -0.052408     0.047537    -0.008111     0.056327    -0.067068     0.102311
0.902400    -0.015172     0.065506    -0.006538    -0.084352     0.001981     0.031300
0.903600     0.028152     0.021087    -0.040645     0.006151    -0.086652    -0.050574
0.904800     0.076010    -0.018124    -0.104383    -0.046857     0.001963     0.112468
0.906000    -0.007476     0.036846     0.019680     0.039935    -0.077079     0.037957
0.907200     0.109254     0.016551     0.041505     0.048375    -0.072955    -0.076410
0.908400    -0.019929    -0.007757     0.055561     0.022241    -0.064711     0.002302
0.909600     0.056232     0.048480     0.019527     0.032102     0.026701     0.066024
0.910800     0.045199     0.024164     0.004695    -0.009072    -0.013972     0.053797
0.912000    -0.019314     0.027281    -0.134393     0.039647     0.063474    -0.061120
0.913200    -0.015522    -0.000471    -0.012898    -0.070641     0.031735     0.004431
0.914400    -0.022659    -0.003737    -0.049430    -0.078311     0.010379     0.071828
0.915600    -0.130973    -0.038334    -0.010589     0.102294     0.088526    -0.077558
0.916800     0.036415    -0.022245    -0.101699     0.014267    -0.018737     0.000000
0.918000    -0.104268     0.109244    -0.076084    -0.029592    -0.058813     0.066135
0.919200    -0.065299     0.004382    -0.017503     0.011891    -0.003655    -0.008361
0.920400    -0.012692     0.002362     0.040936     0.023572    -0.006365     0.052490
0.921600     0.026620     0.000419     0.079007     0.005442     0.026201    -0.009816
0.922800    -0.028524    -0.056875    -0.018567     0.020652     0.000917    -0.047839
0.924000    -0.072923     0.090761     0.017381    -0.084884    -0.009009     0.013150
0.925200     0.034051    -0.089306     0.062884    -0.064740     0.008615    -0.031997
0.926400    -0.005821    -0.031490     0.110970    -0.009929    -0.123886     0.022872
0.927600     0.008291     0.011408    -0.033384    -0.047728    -0.017449     0.076616
0.928800     0.018346     0.026614    -0.097090    -0.058628    -0.078864     0.052772
0.930000    -0.020468    -0.040579     0.001071     0.084635    -0.038711    -0.048851
0.931200    -0.034157    -0.092523     0.043733     0.006794    -0.047422    -0.003593
0.932400    -0.007295    -0.103614    -0.005253    -0.070120     0.047533     0.032683
0.933600    -0.089181     0.066244     0.117542     0.042444    -0.034992    -0.010577
0.934800     0.071239    -0.064738     0.038274    -0.009849    -0.003851     0.057056
0.936000    -0.066701     0.055491     0.018564    -0.062659    -0.013353     0.052956
0.937200    -0.053117    -0.044779    -0.040118    -0.048867    -0.075211    -0.098839
0.938400    -0.027340    -0.029150    -0.034691     0.034080    -0.047293    -0.017445
0.939600    -0.005755     0.054559    -0.016480     0.036231     0.022383    -0.026259
0.940800    -0.046209    -0.050370     0.100410     0.018772     0.007448    -0.001867
0.942000     0.040575    -0.041504     0.087572     0.031919     0.042134    -0.026805
0.943200    -0.012492     0.009166    -0.064713    -0.001778    -0.000635    -0.027039
0.944400    -0.012848     0.002783     0.054765     0.046123    -0.030982     0.026410
0.945600    -0.046031     0.007826     0.088299     0.011849    -0.085267    -0.065158
0.946800     0.050104     0.026883     0.010059     0.006912    -0.001841    -0.024212
0.948000     0.036313    -0.024559    -0.020946    -0.008256    -0.027298    -0.055026
0.949200     0.102199     0.020253     0.051027    -0.015000    -0.007981    -0.015014
0.950400    -0.027541     0.001035     0.000855     0.025229    -0.001099    -0.004117
0.951600     0.027343    -0.109183     0.031425    -0.004572     0.069873     0.052390
0.952800     0.021356    -0.018505    -0.026642    -0.025375    -0.017831     0.011625
0.954000     0.048952     0.056944    -0.015527     0.038246     0.006394     0.034027
0.955200    -0.033262     0.085933     0.000027     0.072084    -0.021829     0.003792
0.956400    -0.012063    -0.018724     0.062432    -0.047346     0.005893     0.075278
0.957600    -0.069358     0.036269     0.009994    -0.014508    -0.055151     0.012849
0.958800    -0.022154     0.025056     0.024552     0.028723    -0.003367    -0.100174
0.960000     0.004452    -0.065385     0.018952    -0.021055    -0.008858     0.006698
0.961200    -0.006726     0.019112     0.031689    -0.049732    -0.010953     0.073496
0.962400    -0.013456     0.026109    -0.015761    -0.071416    -0.046028    -0.054046
0.963600     0.001371    -0.037025     0.031977    -0.023932    -0.047791     0.017920
0.964800    -0.030942     0.084412    -0.007431    -0.025871    -0.024682    -0.066341
0.966000     0.003623    -0.005214    -0.023132    -0.052117    -0.048994    -0.051292
0.967200    -0.049801     0.033960     0.001643    -0.041798     0.084836    -0.014501
0.968400    -0.051809     0.010587     0.009522    -0.000092     0.009704     0.083723
0.969600    -0.007697    -0.054890    -0.001531    -0.045032     0.046215     0.035595
0.970800    -0.063748    -0.084553    -0.015629    -0.026692     0.030525     0.053780
0.972000     0.045055     0.020941     0.051142    -0.020081    -0.007234    -0.048294
0.973200    -0.001395     0.011206     0.001529     0.002104    -0.035209    -0.061322
0.974400    -0.038839    -0.057870     0.013462     0.034077     0.013027    -0.080960
0.975600    -0.047225     0.016071     0.034352     0.011801     0.010595     0.082074
0.976800     0.018471     0.003096     0.026291    -0.050503    -0.029915    -0.069034
0.978000     0.017747    -0.025181    -0.023131    -0.009531    -0.030897     0.040512
0.979200    -0.001192    -0.058174    -0.072239     0.010912     0.027425     0.071668
0.980400     0.018624    -0.022761     0.032687     0.058805     0.006220    -0.004000
0.981600     0.001987    -0.047137     0.081720     0.050203     0.077853     0.036135
0.982800     0.039250     0.002501     0.006834    -0.012000    -0.022997    -0.059954
0.984000     0.048110     0.024940     0.052029    -0.008568     0.029155    -0.016608
0.985200    -0.044815     0.005345     0.073012     0.011547    -0.025334    -0.021424
0.986400     0.030568    -0.018527    -0.017711     0.003661    -0.011836     0.023612
0.987600     0.064559     0.042269    -0.002379    -0.007081    -0.081883    -0.022250
0.988800    -0.052822     0.027173     0.010159     0.013864    -0.017193    -0.092137
0.990000     0.023328     0.010821    -0.016322     0.039209     0.018291     0.031439
0.991200     0.028394    -0.011980    -0.000463    -0.013485     0.005255     0.021173
0.992400    -0.002757    -0.040485    -0.025488     0.002910    -0.016429    -0.001172
0.993600     0.065037     0.072326    -0.009883     0.015752    -0.007408    -0.034737
0.994800     0.011129     0.074813     0.025209     0.038435    -0.048528    -0.009841
0.996000    -0.012279    -0.049748    -0.043304    -0.009848     0.002969     0.040090
0.997200    -0.019380     0.015935    -0.015710     0.006470    -0.046699     0.021154
0.998400    -0.005651     0.038840     0.012471    -0.014200     0.012998    -0.019840
0.999600    -0.044491     0.022015    -0.056687    -0.013959     0.024942    -0.011855
1.000800     0.041857     0.056932    -0.049105     0.062487    -0.041086    -0.028057
1.002000     0.031954     0.024150     0.002672     0.068299     0.025266     0.057181
1.003200     0.019258    -0.087153    -0.007685     0.012753     0.000633     0.015454
1.004400     0.052855     0.053741     0.024014     0.017615     0.006152     0.002181
1.005600     0.017428    -0.009774     0.021717     0.019902    -0.049744     0.014781
1.006800    -0.031738     0.010094    -0.010341    -0.059216     0.047489     0.075918
1.008000     0.032742     0.050033     0.103131     0.003815     0.004701     0.002021
1.009200    -0.004420     0.112862     0.015340    -0.041121     0.049093     0.085771
1.010400     0.023967    -0.010325     0.065172    -0.036540     0.000186    -0.018630
1.011600    -0.070466     0.008276    -0.000496     0.008366    -0.032376     0.017104
1.012800    -0.029819    -0.021178     0.023841    -0.051496     0.043696     0.065173
1.014000    -0.024513    -0.024339     0.060105    -0.051030     0.025118    -0.038278
1.015200     0.000371    -0.024241     0.024439    -0.006110    -0.015563     0.000101
1.016400    -0.024837    -0.018431    -0.052141    -0.016502    -0.000146    -0.012358
1.017600    -0.038088    -0.019251     0.048744    -0.028410    -0.019437    -0.058383
1.018800     0.043246    -0.015436    -0.015661     0.029114    -0.001629    -0.011498
1.020000    -0.050148     0.033460     0.071930     0.028077    -0.010742    -0.006094
1.021200    -0.006024    -0.027660    -0.055053     0.006754    -0.051617     0.010464
1.022400    -0.003797    -0.007433     0.025417     0.017809    -0.003430     0.095418
1.023600     0.012491     0.007761     0.032698     0.020444    -0.066314    -0.036966
1.024800     0.052004    -0.076102     0.039357    -0.008767     0.089839    -0.006655
1.026000     0.020355     0.014139     0.015261     0.027749     0.031296     0.027206
1.027200    -0.006591    -0.038350    -0.017643    -0.043215     0.111376    -0.018615
1.028400     0.002100    -0.036257     0.070433     0.041085     0.037153     0.001315
1.029600    -0.021365    -0.017920     0.062108     0.038577    -0.027078     0.010672
1.030800     0.003933     0.026094     0.003162     0.039135    -0.029643     0.006293
1.032000     0.064419    -0.037912     0.005730     0.013103    -0.009874     0.005478
1.033200    -0.024346     0.027148    -0.022247     0.006267     0.026133     0.036514
1.034400     0.023178    -0.008837     0.002137    -0.052500    -0.036493    -0.008809
1.035600    -0.032679     0.041513     0.016306    -0.060274     0.006100     0.001674
1.036800     0.004666    -0.046871    -0.009042     0.033630     0.036354     0.038759
1.038000    -0.081149    -0.009010     0.014919    -0.091279    -0.019548     0.008287
1.039200    -0.008767     0.041250    -0.014533    -0.029495    -0.028914    -0.100829
1.040400     0.022090    -0.050551    -0.007326     0.016521    -0.053437    -0.003437
1.041600    -0.001337    -0.044338    -0.029861     0.043604    -0.030819    -0.005615
1.042800     0.006719     0.006574    -0.041975     0.007828     0.010230    -0.010467
1.044000     0.013199     0.015753     0.071144    -0.046563    -0.072792     0.038646
1.045200     0.016588     0.005084     0.036017     0.007133    -0.051684    -0.025791
1.046400    -0.070970    -0.032519    -0.072447    -0.031888    -0.061882    -0.044821
1.047600    -0.050118     0.014645    -0.022965     0.033089    -0.054293     0.041395
1.048800    -0.063424    -0.040140    -0.011448    -0.001939    -0.052482    -0.056737
1.050000     0.004289    -0.028943    -0.018951     0.068778     0.020931    -0.043672
1.051200    -0.022610     0.023162    -0.026281    -0.017940    -0.005637     0.005050
1.052400    -0.003739    -0.020023     0.003116    -0.028432    -0.017568    -0.012972
1.053600    -0.029152     0.001690     0.061769     0.030973    -0.056497    -0.004785
1.054800     0.008536     0.029857     0.035096     0.005869    -0.004493     0.036147
1.056000    -0.043949    -0.011144    -0.003248    -0.024811     0.000379     0.021658
1.057200    -0.063766    -0.031620    -0.036600     0.041642    -0.007860    -0.057818
1.058400    -0.028488     0.001086     0.072900    -0.024375     0.032946    -0.038664
1.059600     0.001871    -0.009265     0.000899    -0.037620    -0.016607    -0.077872
1.060800    -0.082124    -0.009592     0.023440     0.040009     0.041415    -0.040855
1.062000     0.046456     0.060606    -0.018359     0.052344    -0.017635     0.009247
1.063200     0.054240    -0.008984    -0.061145     0.001972    -0.009696     0.031205
1.064400     0.032780    -0.036218     0.044589     0.026138     0.073921     0.039131
1.065600     0.010270     0.065399    -0.008181     0.026820     0.053987     0.018639
1.066800     0.036483    -0.025212    -0.011171    -0.036142    -0.011324     0.094744
1.068000     0.009475    -0.006418    -0.035388    -0.017953    -0.028589     0.014668
1.069200    -0.011078     0.010746     0.004861     0.017891    -0.045683     0.022602
1.070400    -0.035202     0.041729     0.018331     0.009020    -0.019864    -0.033471
1.071600    -0.015657     0.001116     0.055367    -0.062345     0.014070     0.022789
1.072800    -0.022422     0.027113    -0.033034    -0.025279    -0.026637     0.019930
1.074000     0.015327    -0.003469    -0.020603     0.030682    -0.006872    -0.056356
1.075200     0.000931    -0.024194     0.035167     0.037134    -0.046868     0.036491
1.076400     0.034329    -0.021444    -0.004785     0.005411    -0.007551    -0.019692
1.077600     0.051124     0.029366     0.058086     0.050119    -0.054942     0.032841
1.078800     0.038072     0.014651     0.045711    -0.014346     0.062048    -0.013428
1.080000    -0.052812    -0.029053    -0.014224     0.001784     0.005244    -0.025212
1.081200     0.009649    -0.020303    -0.001787    -0.003073     0.054427     0.001673
1.082400     0.000934     0.030468     0.001937    -0.002302    -0.051459    -0.034704
1.083600    -0.008921    -0.051322     0.013896     0.008876    -0.029765    -0.012093
1.084800    -0.031107    -0.013821    -0.018706    -0.059197    -0.001783    -0.039347
1.086000    -0.011858    -0.034522     0.007829     0.019295     0.000338    -0.001006
1.087200     0.009712     0.051979     0.006821    -0.021332    -0.034277     0.036208
1.088400     0.024710     0.020227    -0.002985    -0.002144     0.044999    -0.027783
1.089600    -0.022577    -0.008440     0.015306    -0.000200    -0.029424    -0.035149
1.090800    -0.020266    -0.033990     0.013761    -0.040624     0.042468     0.072238
1.092000    -0.008320    -0.052307    -0.054794    -0.035012     0.016857    -0.000413
1.093200     0.027727    -0.022560    -0.021467    -0.037975     0.023757     0.045208
1.094400     0.000824    -0.026024    -0.014999    -0.038827     0.036687    -0.005519
1.095600    -0.054875     0.005080     0.038216     0.037779     0.008673    -0.018427
1.096800    -0.028990    -0.023594     0.009715     0.017988    -0.000145    -0.052664
1.098000     0.018193    -0.002018     0.014641     0.018863    -0.048031     0.019476
1.099200    -0.014759     0.010589     0.011585    -0.018775    -0.008307     0.033864
1.100400     0.005358     0.019195     0.011787     0.018515     0.011124    -0.004280
1.101600     0.039605     0.004077     0.023745    -0.017525     0.014050     0.015622
1.102800    -0.005075     0.024260     0.028394    -0.046178    -0.005819    -0.024672
1.104000    -0.014873     0.030084     0.039220     0.029280    -0.038531    -0.036911
1.105200    -0.019651     0.025696    -0.013513    -0.023188    -0.011367    -0.032403
1.106400    -0.025528     0.009834    -0.081947    -0.028757     0.001331    -0.008918
1.107600     0.034624     0.028347     0.036610    -0.019555     0.024612    -0.042981
1.108800     0.013738    -0.001416    -0.024085     0.027490    -0.000866    -0.005373
1.110000     0.004420     0.043941     0.019942    -0.005744     0.026692     0.034231
1.111200     0.006161     0.013001    -0.015214    -0.023522     0.005436    -0.010510
1.112400    -0.031455    -0.009319     0.018288     0.016585     0.013795    -0.027740
1.113600     0.017442     0.025945    -0.014421    -0.008164     0.060952     0.010377
1.114800     0.035744    -0.027633    -0.008265     0.008155     0.056162     0.009591
1.116000    -0.041693     0.010207    -0.001531     0.002498    -0.074107    -0.007287
1.117200     0.012103     0.018606    -0.003329     0.036916    -0.018198     0.012345
1.118400     0.005227    -0.028852     0.028568    -0.001502     0.009305    -0.009251
1.119600     0.001622    -0.070101     0.060320    -0.015142    -0.015366    -0.014037
1.120800     0.028056     0.004599    -0.001649     0.005843    -0.017206     0.010091
1.122000    -0.029815    -0.000173    -0.045946    -0.040437     0.031518    -0.007284
1.123200    -0.028120    -0.028883    -0.022108    -0.009190    -0.011314     0.019812
1.124400    -0.011071     0.009203     0.020060    -0.011902    -0.012121    -0.029929
1.125600    -0.025706    -0.005035    -0.011479    -0.041469    -0.006016    -0.051576
1.126800     0.032715    -0.024297    -0.006175    -0.011320     0.025387     0.008268
1.128000    -0.070214    -0.027528     0.011601    -0.010602    -0.008584    -0.015490
1.129200    -0.019873    -0.005795     0.022846    -0.041686     0.043436     0.022119
1.130400     0.003092    -0.022691     0.006615    -0.007251    -0.018802     0.020910
1.131600     0.010511     0.042529     0.029805    -0.020103     0.032807    -0.003270
1.132800    -0.026939    -0.031189     0.022156    -0.056105    -0.025325    -0.002786
1.134000     0.017910    -0.004602     0.001317    -0.021346     0.030320     0.030081
1.135200    -0.024313     0.003453     0.000039     0.015807    -0.018331     0.005334
1.136400     0.022443    -0.041020     0.015747    -0.002940    -0.004369    -0.002461
1.137600    -0.001174    -0.034019     0.011124    -0.045322     0.020199    -0.003390
1.138800    -0.020388     0.005498    -0.018648     0.013331     0.011840    -0.009217
1.140000     0.018040     0.016086     0.001727    -0.025731     0.016014     0.014088
1.141200     0.013250     0.007436     0.004955    -0.012215     0.009725    -0.011007
1.142400    -0.036169     0.030638     0.001990    -0.024551    -0.012520    -0.017530
1.143600    -0.007604    -0.016150    -0.029601    -0.037355    -0.044613    -0.005246
1.144800     0.019935     0.014263     0.000103    -0.020740     0.030735     0.013780
1.146000    -0.002236     0.018445     0.005216     0.042063    -0.012668     0.044858
1.147200     0.046389    -0.024040     0.032017     0.057676    -0.007042     0.007354
1.148400     0.010750     0.035479     0.011001     0.006191    -0.021956    -0.003493
1.149600    -0.003958    -0.005864     0.006527    -0.054903    -0.006251     0.035455
1.150800    -0.028512    -0.002923    -0.005245     0.004851     0.009123    -0.050202
1.152000     0.008106     0.031994     0.018799    -0.021830    -0.013746     0.002950
1.153200    -0.041911     0.032600     0.027201    -0.006941     0.019531     0.013537
1.154400     0.001419     0.018411    -0.046091    -0.017708     0.006136     0.033570
1.155600    -0.019875     0.053531    -0.036284     0.000274     0.023000    -0.014677
1.156800     0.002442    -0.003083     0.000799     0.031981    -0.004005     0.056291
1.158000    -0.024047     0.014349     0.005522    -0.002168     0.018467     0.011597
1.159200     0.007834     0.007803     0.011685     0.012987     0.046182    -0.028119
1.160400    -0.021355     0.020734     0.029981     0.018789     0.006058    -0.032553
1.161600     0.039498    -0.034629     0.004564     0.030114    -0.007760     0.008834
1.162800     0.009708    -0.009631     0.001044    -0.021042    -0.000082     0.027878
1.164000    -0.010792    -0.006722    -0.005532     0.036565     0.004253     0.002299
1.165200     0.002409    -0.010778    -0.022833    -0.021413     0.016153     0.004894
1.166400    -0.037515     0.026171    -0.008031     0.014967    -0.001028    -0.026540
1.167600    -0.013569     0.007811    -0.024978     0.002657    -0.007260    -0.015642
1.168800     0.039488     0.026166    -0.027356     0.009845     0.020921     0.032602
1.170000     0.041980    -0.005043    -0.025681     0.002360     0.021127     0.016592
1.171200    -0.077439    -0.037890    -0.001052    -0.017039    -0.037843    -0.053765
1.172400    -0.001255     0.029934     0.016311    -0.012030    -0.023059    -0.012675
1.173600     0.024634    -0.017204    -0.022329    -0.032562    -0.027512     0.018996
1.174800     0.001088     0.000120     0.006748     0.049094    -0.002990     0.012615
1.176000    -0.011848    -0.021218    -0.010330     0.019499     0.012018     0.006549
1.177200     0.005405     0.026133    -0.000922     0.009259     0.031091    -0.023334
1.178400     0.000293    -0.012182    -0.009004     0.087879     0.021355    -0.007358
1.179600     0.005021    -0.019176     0.022725    -0.024758     0.011414    -0.007499
1.180800     0.017895    -0.018205    -0.031878    -0.002539     0.013340     0.004961
1.182000     0.001718     0.021724     0.011393     0.010415     0.018263     0.017477
1.183200    -0.028592    -0.042558     0.010646    -0.017690    -0.023284    -0.004541
1.184400     0.007397    -0.016758    -0.035253     0.022966    -0.006006    -0.026069
1.185600    -0.000472    -0.003562     0.013595     0.004830     0.001323    -0.041295
1.186800     0.028301    -0.050648    -0.009736    -0.061093     0.010114    -0.000454
1.188000     0.015151    -0.000555     0.000484    -0.028533    -0.013475     0.027014
1.189200    -0.002124     0.012657    -0.038348     0.000083     0.009934    -0.007812
1.190400     0.031319     0.010735    -0.015743    -0.030902     0.035471    -0.007715
1.191600     0.021827     0.002926    -0.006245    -0.026236    -0.014006    -0.048114
1.192800     0.012099     0.011733    -0.031360     0.032133     0.000533    -0.026813
1.194000    -0.036321    -0.002828    -0.009071    -0.001623     0.007669     0.003041
1.195200    -0.052531     0.003405     0.001837    -0.012513    -0.001060    -0.054111
1.196400    -0.061880     0.011806     0.019800     0.012605    -0.009433    -0.011282
1.197600     0.019885    -0.021937    -0.021631    -0.005529    -0.016377     0.015211
1.198800     0.008721    -0.003328     0.000442    -0.013431    -0.013268    -0.016426
1.200000     0.003618    -0.009922     0.009882    -0.000584    -0.016538    -0.020428
1.201200     0.001540     0.033339     0.040125     0.008451    -0.001104    -0.032634
1.202400    -0.007503     0.046320    -0.013113     0.015121     0.015762    -0.009980
1.203600    -0.004390    -0.022280    -0.032339    -0.010065    -0.016816    -0.008058
1.204800    -0.011993    -0.010622    -0.006388    -0.018210    -0.015041    -0.016450
1.206000     0.004146     0.032964     0.010406    -0.003510     0.004725     0.010378
1.207200     0.033342    -0.038989    -0.010360     0.016925     0.020697    -0.020346
1.208400    -0.059499     0.003354     0.028123     0.016403    -0.003525    -0.017744
1.209600    -0.004836     0.005031    -0.014061    -0.024247     0.016120     0.020164
1.210800    -0.029946     0.020566     0.001828     0.014101     0.009803     0.028868
1.212000     0.017208     0.004908    -0.031468    -0.016620     0.003650     0.011575
1.213200     0.015843     0.016577    -0.010177    -0.003895     0.006134    -0.011456
1.214400    -0.014913    -0.018639     0.028625    -0.009600     0.014251     0.009837
1.215600    -0.014777    -0.018166     0.049054     0.001625    -0.021649    -0.015496
1.216800     0.003835     0.011210     0.018349     0.014935    -0.024796     0.009783
1.218000     0.011370    -0.016645    -0.002686    -0.014025     0.025107    -0.019763
1.219200     0.011141     0.043013    -0.031140     0.018762     0.033251    -0.008828
1.220400     0.017165     0.028142     0.018786     0.026814    -0.009244    -0.003112
1.221600    -0.003398     0.001319    -0.037263    -0.000012    -0.001815     0.002293
1.222800     0.002803     0.020333    -0.002625     0.005839     0.044043    -0.004789
1.224000     0.021260     0.019780     0.019655     0.033657     0.010809     0.014184
1.225200    -0.011794    -0.029363    -0.030309    -0.046729     0.013908     0.009993
1.226400    -0.015602    -0.054150    -0.015408     0.012878    -0.016300     0.032187
1.227600    -0.005570    -0.002667     0.054775     0.018308     0.001969     0.000710
1.228800    -0.034338    -0.017301     0.027286    -0.002667    -0.015256    -0.026082
1.230000     0.015794    -0.008357    -0.001921    -0.022942     0.004214    -0.011458
1.231200    -0.002640     0.002971    -0.028776    -0.033692     0.020973     0.006938
1.232400    -0.059082    -0.000425     0.014024    -0.027618     0.003166    -0.003206
1.233600    -0.006109    -0.032757     0.009022     0.013994     0.001650     0.011170
1.234800    -0.037097     0.034535     0.003892    -0.036099     0.020137    -0.004596
1.236000    -0.000217    -0.013590     0.014462    -0.004534     0.000605    -0.005608
1.237200     0.019862    -0.011994    -0.005772     0.022957     0.010732     0.002282
1.238400     0.035914     0.028380     0.030260    -0.052196    -0.019869    -0.033585
1.239600     0.000140     0.003395     0.007739     0.035431    -0.019720     0.034842
1.240800     0.002047    -0.026407    -0.008335    -0.002247    -0.006244     0.029714
1.242000     0.023333    -0.017452    -0.000153    -0.014141    -0.004158    -0.031936
1.243200     0.002340     0.038406    -0.011341    -0.005024    -0.029196    -0.015167
1.244400     0.025416     0.008825    -0.029311    -0.003661    -0.010994     0.004852
1.245600     0.021000     0.005835    -0.007126    -0.002666     0.010385    -0.004378
1.246800     0.008660     0.032680    -0.009046     0.019301     0.012729     0.035002
1.248000    -0.002906     0.015143     0.019946     0.015762     0.016178     0.012685
1.249200    -0.020645    -0.000768    -0.000078    -0.013722    -0.000020     0.023526
1.250400     0.006502     0.005572     0.008039     0.006798     0.014021     0.004560
1.251600     0.039733     0.010683     0.007130     0.007153     0.025558    -0.006492
1.252800     0.021583     0.016406     0.026601     0.015485    -0.013175    -0.003699
1.254000     0.019477    -0.003130    -0.015389    -0.010055     0.008447    -0.006708
1.255200     0.030464    -0.028020     0.006602    -0.005492     0.016782     0.013021
1.256400    -0.021607    -0.019624    -0.017273     0.005490     0.018468     0.025690
1.257600    -0.031054     0.014315     0.031349     0.023935    -0.010238    -0.009392
1.258800     0.013982     0.027828     0.005105    -0.027994     0.014895     0.000990
1.260000    -0.031739    -0.014672     0.011402     0.013490     0.004909     0.000682
1.261200    -0.014078    -0.009542     0.028010    -0.006961    -0.022766     0.008814
1.262400     0.010206    -0.000908     0.027773    -0.028935    -0.002477    -0.012620
1.263600    -0.013164     0.040641    -0.012295     0.002040    -0.002706     0.006460
1.264800    -0.006176     0.003538    -0.020654     0.004629    -0.007934     0.010422
1.266000    -0.000494    -0.010036     0.028627     0.010556     0.008130    -0.010119
1.267200    -0.014346    -0.031286    -0.028560    -0.004695    -0.008234    -0.014340
1.268400    -0.022922    -0.004395     0.022831    -0.014107     0.009624     0.012475
1.269600    -0.012209     0.021942    -0.001249     0.012859    -0.000450     0.006276
1.270800    -0.001690    -0.005009    -0.015246    -0.000393    -0.016390     0.026584
1.272000     0.034830    -0.001215     0.007691    -0.010282     0.006016    -0.015174
1.273200    -0.023858     0.026011     0.010321    -0.029869    -0.011473    -0.003738
1.274400     0.000362    -0.011626     0.020191    -0.016969    -0.013107     0.004009
1.275600     0.015018     0.035625     0.007585     0.012329    -0.005138     0.003598
1.276800     0.010607     0.011632    -0.000997     0.013716     0.017469     0.008220
1.278000     0.022673    -0.022381    -0.016871    -0.010218     0.025953     0.001474
1.279200     0.005342     0.019110     0.024896    -0.041700    -0.018882     0.017152
1.280400     0.009641     0.007193     0.004433     0.021081    -0.011556    -0.017803
1.281600    -0.022997     0.007636     0.027050    -0.016876     0.006313    -0.009850
1.282800     0.002543     0.011721    -0.005901    -0.005736    -0.004443     0.014658
1.284000    -0.012070    -0.051240    -0.014821    -0.001514     0.009356     0.016343
1.285200     0.021697    -0.009771     0.001527     0.002895    -0.030006     0.005740
1.286400    -0.000711    -0.023976     0.000431     0.006551     0.006831    -0.005848
1.287600     0.010333     0.013631     0.023332     0.015311    -0.034592    -0.002653
1.288800    -0.000751    -0.002351    -0.009348    -0.012787     0.004631    -0.001143
1.290000    -0.009364    -0.001614    -0.010725     0.012854     0.015774     0.018456
1.291200     0.004509     0.001596     0.037937    -0.000518     0.008766     0.019727
1.292400    -0.007342     0.000446    -0.029616     0.012836    -0.028925     0.016369
1.293600     0.007533    -0.014773    -0.003186     0.008669     0.027595     0.003931
1.294800    -0.021927    -0.011404    -0.006188    -0.030263    -0.005548    -0.004460
1.296000    -0.002091    -0.015860    -0.024089     0.004203    -0.012122    -0.003606
1.297200    -0.019923     0.000857    -0.021727     0.001416    -0.012487    -0.013728
1.298400    -0.025328    -0.002826    -0.014367    -0.012856     0.003542     0.018309
1.299600     0.014106    -0.008841     0.001801    -0.024235    -0.025458    -0.009200
1.300800    -0.004395    -0.002263    -0.000230    -0.020585    -0.010006    -0.023488
1.302000     0.013878    -0.017327    -0.002490    -0.004981    -0.002857     0.014419
1.303200    -0.002486    -0.027089     0.014480    -0.035049     0.017607    -0.028161
1.304400     0.001622    -0.014131     0.004079    -0.006621    -0.005782     0.021374
1.305600     0.005484     0.013641     0.004838     0.004845     0.024424     0.019857
1.306800    -0.001644     0.016712     0.013599    -0.000083     0.007436     0.004431
1.308000    -0.000696     0.002834    -0.015899    -0.002148    -0.013586     0.007658
1.309200     0.008970    -0.004391    -0.019650     0.002094    -0.034219     0.012775
1.310400     0.008302    -0.004267    -0.005734    -0.018241    -0.011202     0.008834
1.311600    -0.010650     0.031261     0.006130     0.003442     0.017658     0.019258
1.312800    -0.017349     0.034592    -0.009046     0.023204     0.004356     0.005284
1.314000     0.009116    -0.013837     0.002780     0.001489    -0.006290     0.014848
1.315200    -0.005415    -0.001554     0.008455    -0.001592     0.000075     0.022370
1.316400    -0.014296     0.008019    -0.003040     0.014333     0.017416     0.003624
1.317600    -0.008080    -0.010964     0.013504     0.016798    -0.000635    -0.001395
1.318800    -0.018967    -0.006641     0.018299    -0.018052     0.016047    -0.012331
1.320000    -0.015207     0.009440     0.001535     0.017862     0.026305    -0.020195
1.321200     0.016225     0.030072    -0.002320     0.003492     0.004678     0.008031
1.322400     0.006283    -0.020800     0.005518    -0.005846     0.002462    -0.013643
1.323600     0.013467    -0.009191    -0.016429     0.004017    -0.013701    -0.019768
1.324800    -0.012387     0.009370     0.021284    -0.013013     0.008666     0.016071
1.326000    -0.004626    -0.017662    -0.009925     0.000864     0.025056    -0.000275
1.327200    -0.009284     0.003178    -0.002237    -0.020364     0.005018    -0.018947
1.328400    -0.004417     0.011479     0.000176     0.024267     0.014821    -0.009409
1.329600    -0.007822     0.024465    -0.002026     0.018790    -0.005798     0.007229
1.330800    -0.009559    -0.006627    -0.009256    -0.002886    -0.006122    -0.022122
1.332000     0.013018    -0.002365     0.003191     0.012437     0.019053    -0.000100
1.333200    -0.023150     0.000863     0.008415    -0.001511    -0.001503     0.019411
1.334400     0.022596     0.024724     0.002792     0.001560    -0.000924     0.004413
1.335600    -0.016651     0.015625    -0.009666    -0.013537    -0.005390    -0.021147
1.336800     0.007076     0.011587     0.005106     0.006859    -0.000021    -0.013337
1.338000    -0.000295    -0.019274    -0.002164    -0.006358    -0.001333    -0.014797
1.339200    -0.008351     0.014325     0.003271    -0.012129    -0.010399     0.005279
1.340400    -0.007139     0.013041    -0.001029    -0.017478    -0.003072     0.005127
1.341600     0.019156    -0.003782    -0.004313    -0.009255    -0.011464     0.018839
1.342800    -0.008815    -0.001784    -0.008185    -0.009096     0.009440     0.003133
1.344000    -0.016306     0.013972     0.020431     0.003246     0.023127    -0.015562
1.345200    -0.000345    -0.012203     0.002603    -0.014494    -0.018747     0.006123
1.346400     0.003375     0.020837     0.008948    -0.010028     0.001671    -0.011832
1.347600     0.001068    -0.001446    -0.019527     0.016840    -0.013825    -0.008530
1.348800    -0.014534    -0.000990     0.003336     0.004245     0.005989    -0.007218
1.350000     0.002957     0.001248     0.005192    -0.008472     0.016106     0.020578
1.351200    -0.018044    -0.009316    -0.020880     0.005664    -0.005862    -0.023622
1.352400    -0.015503    -0.004822     0.012966     0.012693     0.013536     0.006006
1.353600     0.006965     0.005276     0.003603     0.021504    -0.013703     0.005491
1.354800    -0.009963     0.001586    -0.010651    -0.015174    -0.024279     0.000999
1.356000     0.013333     0.015117     0.013145     0.018345     0.014311     0.009560
1.357200     0.002322    -0.011427    -0.000740    -0.020563    -0.014564     0.009104
1.358400    -0.022391    -0.025552    -0.022385     0.004933    -0.001496     0.009471
1.359600     0.000928    -0.023730    -0.009187     0.025304    -0.002834    -0.008233
1.360800     0.019811    -0.013698     0.000596    -0.023644     0.021734     0.002165
1.362000     0.022457    -0.002042    -0.002265     0.012417    -0.006777    -0.010005
1.363200     0.015704     0.015112    -0.014273     0.002859    -0.001905     0.005116
1.364400     0.021876    -0.023313     0.003329     0.009495     0.011522    -0.029886
1.365600     0.000248    -0.005084    -0.016914    -0.009119    -0.022251    -0.016807
1.366800     0.007891     0.004140    -0.002162    -0.015387    -0.021008     0.020000
1.368000    -0.010383     0.006482    -0.016173     0.013983    -0.003788     0.011895
1.369200     0.024824    -0.016452     0.017264    -0.003923    -0.002100     0.007274
1.370400    -0.007370    -0.009312    -0.004991     0.001041     0.026122     0.020774
1.371600    -0.006571     0.012640    -0.008512    -0.013141     0.017143     0.001382
1.372800    -0.029250    -0.010414    -0.008002    -0.014708    -0.000750    -0.007391
1.374000    -0.010776     0.015736     0.017331     0.003960    -0.015897    -0.007215
1.375200    -0.004095    -0.005649     0.003368     0.013595     0.003915    -0.004363
1.376400    -0.003981     0.001815    -0.013995     0.008299    -0.034108    -0.009195
1.377600    -0.030157     0.011602     0.005940     0.000954     0.021621     0.014948
1.378800     0.019631    -0.025335     0.005869     0.006324     0.003945    -0.002000
1.380000    -0.001434    -0.011426     0.015368    -0.002656    -0.002609    -0.007159
1.381200    -0.012740     0.024695     0.010922     0.005842    -0.000135    -0.013185
1.382400     0.008282     0.002974     0.002426     0.000944     0.001351    -0.002626
1.383600     0.005014     0.006125     0.012790     0.007878     0.017521     0.018434
1.384800    -0.000930    -0.003500     0.006508     0.011408    -0.008323     0.004872
1.386000     0.003053     0.010084     0.012266    -0.000118    -0.020573     0.000927
1.387200     0.004156     0.002834    -0.005305     0.011976    -0.023162    -0.000617
1.388400    -0.004660    -0.019784    -0.009678    -0.010995     0.010716    -0.007050
1.389600     0.023432    -0.011005    -0.004863     0.012342    -0.000472    -0.017491
1.390800    -0.005352    -0.011188     0.011381     0.005717     0.014365     0.000658
1.392000    -0.008146     0.003831    -0.003739    -0.017249    -0.004931     0.001104
1.393200     0.012459     0.014547     0.004846    -0.010436     0.002087     0.006796
1.394400    -0.002183    -0.021880     0.009854    -0.008358     0.011911    -0.007531
1.395600     0.010979     0.015439    -0.014907     0.005088    -0.002807    -0.013925
1.396800     0.008325    -0.001844     0.000670     0.007913    -0.001909    -0.021003
1.398000     0.001836    -0.006277     0.004934    -0.002221    -0.006212    -0.006247
1.399200     0.022038     0.017892     0.006108     0.018039     0.000782     0.000715
1.400400     0.000301    -0.001177     0.007307     0.000339    -0.007103     0.012132
1.401600    -0.013668    -0.037679     0.002192     0.005984    -0.004328     0.011643
1.402800    -0.000608     0.020873     0.007298    -0.012634     0.007956    -0.004634
1.404000     0.015537    -0.013816     0.029808     0.003516     0.003257     0.012565
1.405200    -0.000814     0.007153     0.013249     0.008943    -0.010579     0.019259
1.406400     0.002301     0.008614     0.004547    -0.002436    -0.006288     0.019616
1.407600     0.021076     0.008677     0.008463     0.002964     0.004962     0.002211
1.408800    -0.008494     0.023199     0.001078    -0.001174     0.001972     0.015056
1.410000    -0.013527     0.002181     0.021060     0.024897     0.005473    -0.010888
1.411200    -0.019175    -0.007893     0.006246     0.030157    -0.000284    -0.016001
1.412400     0.008971     0.009247     0.017095     0.000299     0.015345    -0.006230
1.413600     0.007616     0.014536    -0.015886     0.009576     0.011854     0.004817
1.414800    -0.004665    -0.010816    -0.016507    -0.007843     0.011052     0.002882
1.416000     0.018652    -0.006373    -0.001639     0.004506     0.000448    -0.003653
1.417200     0.018105    -0.002583    -0.001819     0.002212     0.005489    -0.003112
1.418400     0.004112     0.004031     0.003877    -0.007728    -0.002939    -0.004572
1.419600     0.003582     0.011990    -0.000362     0.004007     0.018017     0.007902
1.420800    -0.001725     0.007836     0.016511    -0.014142    -0.004179    -0.005279
1.422000    -0.008294     0.015875    -0.003303     0.010026    -0.003310    -0.001660
1.423200    -0.014360    -0.002372    -0.011059    -0.011125    -0.005162    -0.007020
1.424400     0.015926     0.018028     0.015327     0.005197    -0.020765    -0.015467
1.425600     0.019118     0.006910     0.001165    -0.007028     0.005265    -0.000909
1.426800    -0.006054     0.008221    -0.004559     0.007438     0.005964     0.005478
1.428000     0.004836    -0.010323     0.006182     0.016028     0.001412    -0.003705
1.429200     0.003467    -0.007245     0.004101     0.000590     0.002426     0.006901
1.430400    -0.018109    -0.016820    -0.011988     0.019683    -0.004151    -0.017598
1.431600     0.008213     0.005273     0.009888    -0.014193    -0.018092    -0.013343
1.432800    -0.013775     0.011183    -0.001973     0.016135     0.002800     0.005189
1.434000     0.002016    -0.009700     0.003987     0.001367    -0.006621    -0.008084
1.435200     0.016930     0.009192     0.010526     0.014491     0.004679    -0.008519
1.436400     0.009636     0.014472     0.006814     0.027832    -0.009163     0.003461
1.437600    -0.011487     0.019400    -0.000397    -0.003318     0.001000     0.014884
1.438800    -0.001617    -0.000190    -0.004878    -0.007429     0.006967    -0.010262
1.440000     0.005463     0.000791     0.006847    -0.010766     0.021638    -0.009359
1.441200     0.007058     0.013270     0.009522     0.005011    -0.006915    -0.003823
1.442400    -0.011224    -0.004049     0.008100    -0.002005    -0.004851    -0.006621
1.443600     0.027460    -0.004108     0.001241    -0.000069    -0.019895    -0.004805
1.444800    -0.025319     0.010868     0.006264     0.001259     0.003542    -0.019986
1.446000     0.005229    -0.004103    -0.012167    -0.002980    -0.008645     0.008321
1.447200    -0.006100     0.004476    -0.009512    -0.003629     0.003156     0.000751
1.448400     0.014125    -0.017597     0.007971     0.007441    -0.001908    -0.016209
1.449600    -0.001829    -0.005526    -0.006091    -0.001584    -0.009987    -0.009782
1.450800    -0.005832    -0.003010    -0.009938    -0.007708    -0.014202     0.002649
1.452000    -0.001321     0.004506    -0.009723    -0.010518    -0.002048    -0.012227
1.453200     0.011524    -0.001847     0.007133    -0.005216     0.017142     0.000436
1.454400     0.008815     0.003886     0.007023     0.003519    -0.012451     0.018494
1.455600     0.001163     0.018218     0.008347     0.005914    -0.010068     0.008835
1.456800    -0.004778    -0.000563    -0.004928    -0.004423    -0.000896     0.003351
1.458000     0.021486    -0.018746    -0.001435     0.001926     0.013432    -0.000705
1.459200    -0.004552     0.006993     0.008303     0.008334    -0.009519     0.019126
1.460400    -0.011322     0.004759    -0.004708    -0.004650    -0.001897     0.004942
1.461600    -0.020223    -0.008410     0.004877    -0.000621    -0.004771    -0.014999
1.462800     0.000513    -0.004550     0.012977     0.000955     0.005866     0.005640
1.464000    -0.010131    -0.014345     0.000582    -0.009315     0.004412    -0.005770
1.465200     0.002552     0.005239     0.001879    -0.021691     0.003676     0.010984
1.466400    -0.010772    -0.016798     0.001921     0.001952    -0.000426     0.007798
1.467600     0.006797     0.005228     0.000906     0.013139    -0.019049    -0.012195
1.468800    -0.002096     0.001019    -0.001788     0.014789     0.000524     0.008751
1.470000     0.000070     0.017371     0.001395     0.010497     0.006904    -0.001070
1.471200     0.001582     0.003239     0.002435     0.004637     0.005678    -0.005419
1.472400     0.027654     0.000727     0.000014     0.004480    -0.009624     0.013371
1.473600     0.004491     0.013120     0.012573     0.000428     0.006872    -0.014359
1.474800    -0.011507     0.008831     0.008344    -0.004374     0.001560    -0.014478
1.476000    -0.017842    -0.018487    -0.027806    -0.001375    -0.009590     0.007085
1.477200    -0.005813    -0.005021     0.007070     0.017630    -0.004190     0.006387
1.478400    -0.002901    -0.002843    -0.009185     0.003638     0.003619     0.007796
1.479600    -0.004651     0.000973     0.008200    -0.000582    -0.018960     0.012694
1.480800    -0.003869     0.007505     0.002125     0.000067     0.011754    -0.008198
1.482000     0.012095    -0.001995     0.003270    -0.009183     0.010599     0.004757
1.483200    -0.008129    -0.004396     0.009980    -0.007844     0.001159     0.003538
1.484400    -0.005245     0.006940    -0.012377     0.004238     0.010973     0.001475
1.485600     0.006991     0.002053     0.003131    -0.002104    -0.004335     0.007565
1.486800    -0.001759    -0.009033    -0.003976    -0.008189    -0.011711    -0.001167
1.488000     0.004755     0.003322    -0.002962     0.001348     0.007282    -0.010211
1.489200    -0.005302    -0.034854     0.005961    -0.003715     0.006215     0.016127
1.490400     0.006129    -0.003064     0.006609    -0.008967    -0.004200    -0.005910
1.491600    -0.014560    -0.003555     0.009675    -0.000092    -0.003049     0.010135
1.492800     0.003562     0.002049    -0.016873     0.013487    -0.000766    -0.002616
1.494000     0.007020     0.003294     0.007098     0.006609     0.007194    -0.008720
1.495200    -0.007312    -0.011350    -0.018017    -0.013236    -0.000362    -0.002314
1.496400     0.012825     0.009417    -0.005483     0.004960     0.009058    -0.007394
1.497600    -0.004033    -0.010831    -0.010175    -0.003060     0.023155     0.009191
1.498800     0.001305    -0.007591    -0.006533     0.007124     0.008053    -0.010622
1.500000     0.002934     0.012684     0.012435    -0.003668     0.002153    -0.016048
1.501200    -0.006826    -0.007055    -0.006070     0.005810    -0.005436     0.007691
1.502400     0.011800     0.003362    -0.006899    -0.004336     0.011379     0.009181
1.503600     0.007810     0.005380    -0.013563    -0.000606    -0.004216    -0.006155
1.504800     0.002130    -0.003431    -0.013290    -0.016544     0.012571    -0.009043
1.506000     0.007879     0.006450    -0.004774    -0.001494     0.003380     0.014638
1.507200    -0.000440     0.009297    -0.003364     0.007859    -0.003915     0.000074
1.508400    -0.004567     0.001758    -0.005583     0.000150    -0.005564    -0.008487
1.509600     0.010797     0.005909    -0.002927    -0.012584     0.006201    -0.003071
1.510800    -0.001840     0.008779    -0.002062     0.008205    -0.003969     0.013866
1.512000     0.014722    -0.009457    -0.005869    -0.003770     0.000457     0.002840
1.513200    -0.003329    -0.019336     0.005368     0.011558     0.007248     0.000966
1.514400    -0.007157    -0.000810     0.006036     0.011184    -0.009496    -0.004636
1.515600    -0.002406     0.004228    -0.003238    -0.002401    -0.004849     0.004867
1.516800    -0.004462    -0.003497    -0.015029     0.003827    -0.008731     0.000729
1.518000     0.005180    -0.008778    -0.009895    -0.019304    -0.003933    -0.000962
1.519200     0.006779    -0.002709     0.003742    -0.012320     0.006875     0.009745
1.520400     0.009505    -0.004215    -0.006459     0.006257     0.005698     0.002288
1.521600     0.003842    -0.007055    -0.012124     0.001709     0.010454     0.006369
1.522800    -0.007189    -0.004795    -0.007864    -0.005942     0.001394     0.007985
1.524000    -0.001808    -0.000401    -0.002721    -0.006227     0.010820     0.000978
1.525200     0.004192     0.002307    -0.007444     0.005477     0.002537     0.004840
1.526400     0.002431     0.010939    -0.001509     0.014052    -0.008519     0.002931
1.527600     0.011869    -0.009200     0.000516    -0.002755     0.018700    -0.007996
1.528800    -0.005965    -0.006144     0.001698     0.008716     0.001080     0.003469
1.530000    -0.012138     0.006132     0.006423    -0.004119    -0.003036    -0.012554
1.531200     0.017530    -0.003955    -0.002594    -0.008366    -0.003195    -0.002656
1.532400    -0.006757     0.015198    -0.003545    -0.005363    -0.003292    -0.000677
1.533600     0.004207     0.008175     0.012810    -0.011094    -0.008922     0.005449
1.534800     0.001689     0.009064     0.014040     0.002526    -0.011629     0.000401
1.536000    -0.005743     0.000918     0.001376     0.011590    -0.011192    -0.000313
1.537200    -0.005076     0.002159     0.008147     0.001344    -0.012181    -0.004799
1.538400     0.004675    -0.011359    -0.005703     0.014751     0.006090     0.004505
1.539600     0.005514    -0.008118     0.014105    -0.014793    -0.011031    -0.002449
1.540800     0.002981    -0.011106    -0.008042     0.004052     0.010727    -0.006969
1.542000     0.006147    -0.007912    -0.008146    -0.003521    -0.001419    -0.002880
1.543200    -0.000782     0.005577    -0.000640     0.014858    -0.012693    -0.008763
1.544400     0.006022    -0.003936     0.003628    -0.012363     0.006216    -0.004196
1.545600    -0.007189    -0.002827     0.000915    -0.003406     0.007976    -0.001121
1.546800     0.005686    -0.010712    -0.001850     0.000000    -0.010098     0.002118
1.548000     0.004221    -0.008594     0.008029    -0.002338     0.004878    -0.007004
1.549200    -0.005984    -0.018459    -0.002259     0.000441    -0.002839     0.016235
1.550400    -0.007616    -0.009043    -0.013341    -0.001111     0.005348    -0.005168
1.551600     0.007747     0.000553    -0.004378    -0.001760     0.004948    -0.004273
1.552800     0.006667    -0.005831    -0.006037    -0.002643    -0.004201    -0.002157
1.554000     0.009774     0.002812     0.002847    -0.006186    -0.006871     0.018945
1.555200    -0.016295    -0.003937    -0.006474     0.000885    -0.000071     0.007088
1.556400    -0.002593    -0.005341     0.003772    -0.004434     0.005249     0.000479
1.557600    -0.002160     0.009509     0.008818    -0.005678     0.004645    -0.008235
1.558800    -0.004028     0.007906     0.004185     0.002421    -0.005328     0.005024
1.560000     0.003682    -0.005184     0.000779    -0.003372    -0.004361     0.005920
1.561200     0.018264    -0.003198    -0.000274     0.004717     0.011251     0.000608
1.562400    -0.009596     0.005610    -0.006687    -0.002197    -0.007354     0.008464
1.563600     0.002022    -0.005966    -0.003785     0.000633     0.001340     0.004428
1.564800    -0.008151    -0.002406    -0.002416    -0.002495    -0.007103     0.003807
1.566000     0.007152     0.015789     0.000428    -0.004524     0.001879     0.009274
1.567200     0.002609     0.000348     0.000389    -0.002523     0.004514    -0.000582
1.568400    -0.012651    -0.005288     0.007117    -0.009857    -0.000446    -0.002133
1.569600     0.008506    -0.004674     0.004370     0.000199     0.006434     0.002417
1.570800    -0.003214    -0.004066     0.000042    -0.005518     0.000913     0.006230
1.572000     0.001911     0.005713     0.000974    -0.005329    -0.008077    -0.010271
1.573200    -0.004581    -0.006596     0.002303    -0.004409    -0.000650     0.000444
1.574400     0.004619     0.002420    -0.000638    -0.012605    -0.000599     0.003190
1.575600    -0.001847     0.010095    -0.003945     0.005953    -0.008810    -0.007687
1.576800     0.001227     0.003009    -0.005538     0.013044     0.007380    -0.001302
1.578000    -0.011033    -0.001519    -0.000079    -0.001500     0.003376     0.005687
1.579200     0.001196    -0.001035     0.006686     0.001551    -0.006161     0.002099
1.580400     0.004154     0.004831     0.006862     0.009459     0.005814     0.002494
1.581600    -0.001761    -0.000857     0.008018    -0.000098    -0.008438    -0.001845
1.582800     0.007159    -0.011052     0.005523     0.002829     0.016216    -0.005094
1.584000     0.000494     0.000643    -0.003815    -0.003800     0.005186     0.006951
1.585200     0.005794    -0.003725    -0.006718     0.002824     0.009877    -0.003836
1.586400     0.002842     0.002222    -0.001111     0.017660     0.013667     0.007842
1.587600     0.011576    -0.003288    -0.001983     0.003143     0.003597     0.005600
1.588800     0.004925     0.000912     0.005045    -0.007799    -0.004416    -0.002785
1.590000    -0.003905    -0.003754    -0.005261     0.015203    -0.009125     0.001078
1.591200    -0.004807    -0.006677     0.001633     0.006132    -0.007301    -0.008941
1.592400     0.002555     0.002734     0.003640    -0.000933    -0.008940     0.004006
1.593600     0.003272     0.007400    -0.004039     0.000207     0.006860     0.003519
1.594800    -0.010227    -0.005145    -0.005679    -0.002217     0.000608    -0.000179
1.596000     0.012495     0.001430    -0.009885     0.007439     0.003573    -0.000983
1.597200     0.003327    -0.004707    -0.005930     0.004997    -0.000592     0.004235
1.598400     0.008673    -0.005384     0.010592     0.005395    -0.003388    -0.010833
1.599600     0.004832     0.009240     0.001908    -0.004302    -0.005776     0.005964
1.600800     0.000668     0.008490     0.002735     0.003570    -0.007096    -0.007645
1.602000     0.003432    -0.003688    -0.001997     0.016948     0.001319    -0.000258
1.603200     0.013879    -0.000778     0.007059     0.005828     0.010280    -0.003358
1.604400     0.000564    -0.002069     0.007633     0.011648    -0.002836    -0.004753
1.605600     0.003303    -0.000012     0.004337     0.007571     0.003712    -0.001444
1.606800     0.007056     0.005237     0.001721    -0.009281     0.013312    -0.012212
1.608000    -0.006877     0.001690    -0.002403     0.003359     0.004645    -0.000638
1.609200    -0.007060    -0.001801    -0.004978     0.003944     0.007588     0.005595
1.610400    -0.002317    -0.001068     0.006066    -0.001412    -0.000315     0.001804
1.611600     0.003827    -0.008323    -0.008176    -0.002860    -0.007513    -0.007000
1.612800    -0.011143    -0.008564     0.004817    -0.010994     0.003501     0.001648
1.614000    -0.007333     0.005938    -0.005211    -0.003792    -0.007752    -0.001143
1.615200    -0.006312    -0.001275     0.001821     0.002046    -0.005224    -0.009644
1.616400    -0.005194    -0.005969     0.008725     0.006186    -0.004094     0.006091
1.617600     0.003067    -0.005686    -0.000920     0.004186     0.001362     0.002187
1.618800    -0.006209    -0.004485     0.001275     0.001721    -0.001667    -0.010677
1.620000     0.001934     0.002161    -0.000483    -0.001191    -0.008156     0.000014
1.621200    -0.005308    -0.004268    -0.000597    -0.004647     0.003033     0.007142
1.622400    -0.010597     0.001309     0.000962    -0.006088    -0.006036     0.002591
1.623600    -0.003335    -0.000875    -0.001809    -0.001798    -0.011669    -0.002458
1.624800     0.011628     0.002697     0.002750     0.002428     0.000505     0.005469
1.626000     0.001341     0.008911     0.006709    -0.005511    -0.010272     0.003231
1.627200     0.002449    -0.005934    -0.008295    -0.000332    -0.003589     0.004329
1.628400    -0.006735     0.006428    -0.000596     0.013065     0.000983     0.002545
1.629600     0.001791    -0.007530     0.002804     0.006251     0.001393     0.005891
1.630800     0.008173     0.004737    -0.012196    -0.001408     0.004700    -0.005420
1.632000     0.001456     0.003913    -0.001402    -0.004712    -0.003559    -0.005113
1.633200    -0.002316     0.003974     0.003578     0.000139    -0.007160    -0.005183
1.634400     0.005592    -0.002099     0.000137     0.002174     0.001563    -0.000759
1.635600     0.008450     0.005129    -0.000829    -0.000901    -0.006031     0.003750
1.636800    -0.000162     0.001820     0.000562     0.009214     0.006426     0.003162
1.638000    -0.006009     0.007074
##END NTUPLES=NMR FID
##END=
