83
rdkit_etkdg_mmff_conf_1
C -14.06714096 -0.52233868 1.58967404
C -13.85397839 0.99459377 1.65178149
C -15.08914095 1.69025076 1.06147588
C -13.65489050 1.48492014 3.09026258
O -12.75718552 1.40634594 0.79718256
C -11.49626155 0.97021943 1.04481274
O -11.11912295 0.23448721 1.94260701
N -10.60459588 1.49855434 0.08387162
C -10.93975242 2.35473522 -0.95925267
C -9.81330588 2.66007730 -1.68199088
C -8.72670163 1.97511739 -1.08697276
C -7.34956868 1.90106795 -1.39021542
C -6.47856771 1.11454195 -0.61320802
C -5.04632188 1.02053842 -0.93791660
C -4.59439564 0.76683927 -2.23772241
C -3.22799823 0.64388728 -2.50022896
C -2.32209143 0.77293347 -1.45114832
C -0.88122597 0.58589599 -1.67532114
N -0.31673973 0.40749457 -2.85703270
N 1.04182915 0.18725017 -2.76818359
C 1.47917688 0.20143313 -1.52089892
C 2.86538489 -0.07043392 -1.11277659
C 3.80843939 -0.49694105 -2.04199668
C 5.10298863 -0.79439394 -1.60978546
C 5.44954460 -0.66078993 -0.26080920
C 6.79285585 -0.99793991 0.23632020
C 7.94326074 -0.52645382 -0.40438770
C 9.23239192 -0.85039587 0.04301635
C 9.37591689 -1.67570154 1.17384816
C 8.24302635 -2.15723482 1.84259757
C 8.68380957 -2.94867217 2.92857968
C 10.05431709 -2.94310220 2.90849081
N 10.50575981 -2.17638828 1.83993260
C 11.87918517 -2.00226012 1.55530055
O 12.72946707 -2.53937600 2.24972405
O 12.06490632 -1.21260303 0.47346481
C 13.40418490 -0.93048387 -0.00530438
C 14.10254193 -2.21144993 -0.47551576
C 14.22917598 -0.18102390 1.04706664
C 13.20117723 -0.00742789 -1.21586781
C 6.95754615 -1.81603617 1.36782126
C 4.43841915 -0.20719171 0.58536736
N 3.17107294 0.08382641 0.19908356
S 0.24169363 0.53372288 -0.37043375
N -2.72388283 1.03967924 -0.18426537
C -4.05676188 1.15758913 0.03580144
C -7.01610435 0.41088227 0.47264937
C -8.37674193 0.47114808 0.80030859
C -9.22659490 1.26004408 0.00562870
H -14.98789074 -0.81581435 2.10531111
H -14.12351481 -0.86715955 0.55107443
H -13.24206849 -1.06811765 2.05709452
H -15.23975602 1.39359288 0.01806468
H -14.95920724 2.77827195 1.05739442
H -15.99858585 1.45268432 1.62313879
H -13.40385416 2.55086284 3.10695291
H -12.83494955 0.96024990 3.58883517
H -14.55641485 1.32921838 3.69266905
H -11.96407957 2.67667304 -1.09512073
H -9.77758393 3.30629142 -2.55023208
H -6.96853014 2.46985763 -2.23512927
H -5.30148810 0.63551304 -3.05401551
H -2.88491849 0.42672728 -3.50814066
H 3.54239166 -0.61957979 -3.08834178
H 5.83018355 -1.15456851 -2.33353148
H 7.85424835 0.12101053 -1.27586930
H 10.08610141 -0.45482760 -0.49669320
H 8.06475679 -3.46916127 3.64774251
H 10.77061123 -3.42487409 3.56251480
H 14.32739955 -2.88333878 0.35836368
H 15.04856103 -1.98694955 -0.97930771
H 13.46329013 -2.77221202 -1.16704050
H 14.46541156 -0.81235587 1.90829552
H 15.17880612 0.17181234 0.63131666
H 13.67523827 0.68197863 1.43410446
H 14.15328642 0.27289948 -1.67858424
H 12.67716774 0.90957128 -0.92146372
H 12.57398103 -0.49030123 -1.97442474
H 6.09056294 -2.21812850 1.88710397
H 4.62288751 -0.05479402 1.64670392
H -4.31603364 1.37531893 1.07008227
H -6.37459276 -0.22279046 1.08523473
H -8.75041740 -0.09699765 1.64868814
