83
rdkit_etkdg_mmff_conf_0
C -1.43304115 -3.72689849 -0.40950072
C -1.33018500 -4.77136782 0.43140242
C -0.36687253 -5.82160730 0.30545241
C -0.66513347 -7.20289501 0.43150860
C 0.50875835 -7.86512709 0.18567843
O 1.50647452 -6.98422468 -0.05703750
C 1.00544459 -5.70137424 0.05395592
C 1.86526726 -4.57425842 -0.10079262
C 1.73823831 -3.47442024 0.65729559
C 2.57099870 -2.27416281 0.51637084
C 3.94699827 -2.33754001 0.26824340
C 4.70456115 -1.16656228 0.15630345
C 4.08956450 0.08325135 0.29589469
N 4.85430969 1.27839031 0.16167355
C 4.47422566 2.46055019 -0.48524550
C 3.27583264 2.66073980 -1.31229824
C 2.88826123 1.73868984 -2.29658696
C 1.74370377 1.95850635 -3.06688724
C 0.98612854 3.11344536 -2.87755725
C 1.37893792 4.05325115 -1.92548470
C 2.51917714 3.83068365 -1.15006279
N 5.38569942 3.40261608 -0.31504078
C 6.40865282 2.82484097 0.37907919
C 7.62130167 3.39899106 0.79261103
C 8.51945354 2.62791705 1.53663239
C 8.21052829 1.31206484 1.87435439
C 7.00484303 0.72573450 1.47078817
C 6.12369175 1.49961355 0.69314768
C 2.71698464 0.15342887 0.56245961
C 1.96764429 -1.02022021 0.67874167
C -2.37760511 -2.61001524 -0.27045926
C -2.00817933 -1.36116871 -0.78845658
C -2.86480405 -0.25954305 -0.69212979
C -4.11610706 -0.39720398 -0.08144886
N -4.98835884 0.72440389 0.04087869
C -4.63861440 2.04723570 0.34273186
C -3.30757302 2.54016997 0.72647152
C -2.80591908 3.69694928 0.11299409
C -1.54640059 4.19403243 0.45394304
C -0.77947249 3.54519797 1.42073613
C -1.27820582 2.41179966 2.06104740
C -2.53982533 1.91619242 1.72138409
N -5.69890549 2.83601465 0.29600331
C -6.76473949 2.03171637 0.01682822
C -8.11666476 2.38604152 -0.12378072
C -9.04751836 1.39796647 -0.45740706
C -8.63636099 0.08305417 -0.66366333
C -7.29188416 -0.28645230 -0.52888803
C -6.36944783 0.70823814 -0.15365962
C -4.50295134 -1.64609452 0.41799672
C -3.63935414 -2.74336084 0.32005597
H -0.75322853 -3.65340278 -1.25675702
H -2.01579643 -4.85903201 1.27036084
H -1.62240670 -7.66056724 0.63802613
H 0.78651394 -8.90860905 0.14316057
H 2.64925652 -4.66089794 -0.84492570
H 0.96774040 -3.41088419 1.42161552
H 4.44653373 -3.29782762 0.15655318
H 5.76075697 -1.25634941 -0.08587642
H 3.47687482 0.84143176 -2.47944175
H 1.45038889 1.23355342 -3.82271057
H 0.09905831 3.28798567 -3.48046804
H 0.80208077 4.96654249 -1.79086787
H 2.82393150 4.57775923 -0.41753247
H 7.84435282 4.42984229 0.53989349
H 9.45919458 3.06643033 1.86490040
H 8.91098831 0.73415160 2.47437167
H 6.76806755 -0.28747935 1.77638276
H 2.21026969 1.10475123 0.71155873
H 0.90273247 -0.94356188 0.89246210
H -1.04108957 -1.22731800 -1.27125526
H -2.54124251 0.68268054 -1.12953785
H -3.40297278 4.21626962 -0.63505185
H -1.17024453 5.09194989 -0.02984087
H 0.20097812 3.93340153 1.68532975
H -0.68931134 1.91833944 2.83051959
H -2.92060314 1.04427627 2.24834268
H -8.42217566 3.41770609 0.01795212
H -10.09596838 1.66420863 -0.57205813
H -9.37097430 -0.66943347 -0.94447030
H -6.99021570 -1.30849401 -0.73246661
H -5.45262596 -1.78436711 0.92967098
H -3.97242175 -3.70028631 0.71408353
