86
rdkit_etkdg_mmff_conf_1
C -15.57203838 0.36086322 0.09577456
C -14.30702600 1.11041690 0.54208629
C -14.23715202 2.44419600 -0.21017983
C -14.36430218 1.31213109 2.06017729
O -13.21064381 0.23772353 0.17077647
C -11.92596410 0.60503107 0.41093051
O -11.52266696 1.63198465 0.93295258
N -11.04552653 -0.40290853 -0.04461861
C -11.41590880 -1.60369775 -0.64116708
C -10.29230409 -2.32937390 -0.94959534
C -9.17031666 -1.57117227 -0.53907580
C -7.77853585 -1.80057215 -0.59706521
C -6.87109254 -0.84559184 -0.10388401
C -5.42038024 -1.08513426 -0.16278499
C -4.85053648 -2.22049263 0.43103767
C -3.46966960 -2.44947095 0.37565142
C -2.61444248 -1.54969571 -0.27610681
C -1.17184835 -1.81351700 -0.33072764
C -0.49654510 -3.01293052 -0.46031226
N 0.88301263 -2.94186966 -0.46061305
C 1.27633377 -1.69045723 -0.31701638
C 2.69323529 -1.26858023 -0.29012136
C 3.11398507 -0.00020322 0.13582139
C 4.47288222 0.34646380 0.14008584
C 5.45682961 -0.56264710 -0.27645909
C 6.88064895 -0.19176027 -0.26628216
C 7.81451385 -0.93140802 0.46866902
C 9.17057171 -0.58062815 0.51196596
C 9.59804604 0.54748556 -0.21036756
C 8.69318974 1.30072044 -0.96498814
C 9.41697888 2.35016584 -1.57865431
C 10.72885953 2.22692301 -1.19315714
N 10.86380127 1.13199983 -0.34650859
C 12.06295697 0.69592375 0.26234877
O 12.09698517 -0.26904234 1.00848986
O 13.09181522 1.49776506 -0.11366549
C 14.43120616 1.25621901 0.38618161
C 14.49191166 1.42793408 1.90779971
C 14.95190852 -0.11504668 -0.05776534
C 15.29600602 2.34490485 -0.26810567
C 7.33272241 0.92714461 -0.98797326
C 5.04015969 -1.83276389 -0.69404067
C 3.68187220 -2.17892661 -0.69844975
S -0.01429630 -0.55405995 -0.19254881
C -3.18289543 -0.41896555 -0.87653567
C -4.56371956 -0.18835426 -0.81703511
C -7.38211341 0.33641769 0.44439162
C -8.75833453 0.58828731 0.51537054
C -9.64717040 -0.38013656 0.01815920
H -16.48180959 0.92752012 0.31922853
H -15.54722000 0.15759561 -0.98099319
H -15.64331170 -0.61522165 0.58994765
H -14.09954947 2.27642477 -1.28441867
H -13.39407920 3.05650537 0.12331743
H -15.14920023 3.03303778 -0.06372370
H -13.51108044 1.89082543 2.42935962
H -14.33704950 0.34856678 2.58279862
H -15.27568348 1.84132500 2.35880644
H -12.46044703 -1.83804164 -0.79509052
H -10.27803476 -3.30330064 -1.42209560
H -7.41257496 -2.72386289 -1.04025855
H -5.48058721 -2.93501886 0.95820287
H -3.07306220 -3.33630289 0.86440011
H -0.96653895 -3.98313338 -0.56626321
H 2.40317389 0.74350981 0.48595235
H 4.76037398 1.33628419 0.49126215
H 7.48924738 -1.79880592 1.04146322
H 9.86278885 -1.17747197 1.10010707
H 9.01817155 3.11490117 -2.23286235
H 11.58880622 2.83217584 -1.44794052
H 15.52493121 1.40616708 2.27097870
H 14.03789845 2.37897204 2.20946572
H 13.94363767 0.63766076 2.42976427
H 16.01518069 -0.23246409 0.17725006
H 14.41851085 -0.93389680 0.43395159
H 14.81539654 -0.25387079 -1.13678121
H 16.34443588 2.27059799 0.03939302
H 14.92906093 3.34427451 -0.00671204
H 15.24950764 2.27434331 -1.36140950
H 6.63214502 1.51482535 -1.57715529
H 5.77116243 -2.56649575 -1.02925380
H 3.39777172 -3.17607629 -1.02994047
H -2.56335728 0.29572469 -1.41337005
H -4.96837123 0.69631856 -1.30607518
H -6.70237325 1.08748013 0.84404864
H -9.11287316 1.51763321 0.95212688
