57
Properties=species:S:1:pos:R:3 Co(acac)(Et2P-ethylene-PiPr2)+;=T plausible=T initial=T 3D=T XYZ=T geometry,=T cationic=T Co(II)=T precursor-like=T complex=T pbc="F F F" explicit_bonds=b0_1_1,b0_3_1,b0_4_1,b1_17_1,b1_23_1,b1_30_1,b2_18_1,b3_5_1,b4_7_1,b5_6_1,b5_8_1,b6_7_2,b6_10_1,b7_9_1,b8_11_1,b8_12_1,b8_13_1,b9_14_1,b9_15_1,b9_16_1,b17_18_1,b17_19_1,b17_20_1,b18_21_1,b18_22_1,b23_25_1,b23_26_1,b24_27_1,b24_28_1,b24_29_1,b30_31_1,b30_32_1,b30_33_1,b31_34_1,b31_35_1,b31_36_1,b37_38_1,b37_39_1,b37_40_1,b38_41_1,b38_42_1,b38_43_1,b39_44_1,b39_45_1,b39_46_1,b47_48_1,b47_49_1,b47_50_1,b48_51_1,b48_52_1,b48_53_1,b49_54_1,b49_55_1,b49_56_1
Co       0.00000000       0.00000000       0.00000000
P        2.15943209       0.00000000       0.04952826
P        0.00000000       2.18000000      -0.05000000
O       -1.88000000       0.00000000       0.05000000
O        0.00000000      -1.88000000      -0.05000000
C       -2.75000000      -0.85000000       0.05000000
C       -2.00000000      -2.00000000       0.00000000
C       -0.85000000      -2.75000000      -0.05000000
C       -4.20000000      -0.65000000       0.10000000
C       -0.65000000      -4.20000000      -0.10000000
H       -2.25000000      -2.25000000       1.05000000
H       -4.65000000      -1.20000000       0.90000000
H       -4.50000000       0.40000000       0.25000000
H       -4.70000000      -1.00000000      -0.82500000
H       -1.20000000      -4.65000000      -0.90000000
H        0.40000000      -4.50000000      -0.25000000
H       -1.00000000      -4.70000000       0.82500000
C        2.05000000       1.55000000       0.85000000
C        1.25000000       2.25000000      -0.25000000
H        3.05000000       1.90000000       1.17000000
H        1.52000000       1.39000000       1.80000000
H        1.79000000       3.14000000       0.10000000
H        1.27000000       2.13000000      -1.34000000
C        3.62000000      -0.85000000       0.85000000
C        4.92000000      -1.04000000       0.06000000
H        3.85000000      -0.43000000       1.84000000
H        3.30000000      -1.90000000       1.02000000
H        5.72000000      -1.59000000       0.58000000
H        5.27000000      -0.06000000      -0.30000000
H        4.76000000      -1.61000000      -0.86000000
C        2.90000000      -1.10000000      -1.30000000
C        4.25000000      -0.70000000      -1.93000000
H        3.02000000      -2.19000000      -1.17000000
H        2.14000000      -0.89000000      -2.07000000
H        4.76000000      -1.49000000      -2.49000000
H        4.93000000      -0.38000000      -1.13000000
H        4.12000000       0.16000000      -2.60000000
C       -0.85000000       3.60000000       0.90000000
C       -2.05000000       4.25000000       0.25000000
C       -0.20000000       4.45000000       2.00000000
H       -1.20000000       3.00000000       1.76000000
H       -2.56000000       4.90000000       0.97000000
H       -2.76000000       3.50000000      -0.13000000
H       -1.75000000       4.87000000      -0.61000000
H        0.68000000       4.00000000       2.47000000
H       -0.90000000       4.61000000       2.83000000
H        0.14000000       5.43000000       1.62000000
C       -1.15000000       2.90000000      -1.30000000
C       -2.54000000       3.40000000      -1.75000000
C       -0.52000000       3.25000000      -2.63000000
H       -1.16000000       1.80000000      -1.24000000
H       -2.54000000       4.50000000      -1.86000000
H       -3.27000000       3.10000000      -0.98000000
H       -2.85000000       2.97000000      -2.71000000
H        0.51000000       2.87000000      -2.64000000
H       -1.10000000       2.88000000      -3.49000000
H       -0.50000000       4.35000000      -2.74000000
