99
rdkit_etkdg_mmff_conf_4
C 1.81304448 -2.40333255 3.52967094
O 1.04052678 -1.42145367 2.85051899
C 1.70753450 -0.59571075 1.98692029
C 3.07886844 -0.62064187 1.72296621
C 3.65969076 0.28103616 0.81254837
C 5.10667887 0.25229901 0.53818825
C 6.04159261 0.33312134 1.58470874
C 7.41538745 0.31122797 1.32773516
C 7.88557193 0.20746786 0.01212553
N 9.29843868 0.18761933 -0.25416966
C 9.97209154 -1.09475171 -0.31009039
C 9.24691919 -2.29839658 -0.11840942
C 9.85476937 -3.55680557 -0.16597858
C 11.21451618 -3.65497010 -0.40521737
C 11.95606603 -2.49343258 -0.59578742
C 11.35104615 -1.22059618 -0.54944709
S 12.44641190 0.14709858 -0.80769492
C 11.35982886 1.54156315 -0.70485233
C 11.97254951 2.79748213 -0.89309488
C 11.23673568 3.97700983 -0.83878888
C 9.87558610 3.91450344 -0.59473684
C 9.26023080 2.67300284 -0.40682754
C 9.97995698 1.45158664 -0.45486139
C 6.96415229 0.12607219 -1.04031090
C 5.59116954 0.14775059 -0.77719508
C 2.82461756 1.21096161 0.17056581
C 1.44731823 1.24775951 0.42524147
C 0.59675871 2.21519828 -0.24643756
C 0.90728143 3.55875964 -0.32548221
O -0.06484715 4.24341890 -0.97807398
C -1.01781579 3.34012329 -1.31889455
C -0.67393756 2.07339725 -0.88868329
C -1.49989077 0.90433251 -1.13867361
C -0.93276609 -0.26544515 -1.65469212
C -1.71605630 -1.39784704 -1.89187365
O -1.03071203 -2.46707039 -2.40201475
C -1.77708272 -3.64914300 -2.66163788
C -3.08319698 -1.35867422 -1.60821248
C -3.68164746 -0.19578540 -1.08976181
C -5.12128431 -0.15775161 -0.78842561
C -5.69358186 -1.07191419 0.11209281
C -7.05851389 -1.02953825 0.41022348
C -7.88203708 -0.06800742 -0.19033838
N -9.28433380 -0.01481666 0.12320013
C -10.20187716 -0.79777878 -0.68077303
C -9.72233620 -1.58662309 -1.75774259
C -10.57005272 -2.35764434 -2.55938028
C -11.93172962 -2.36597580 -2.31055343
C -12.43562055 -1.60274548 -1.26181434
C -11.58776292 -0.82251001 -0.44870058
S -12.39849726 0.08421435 0.83862287
C -11.05717545 0.94108546 1.61534542
C -11.41886979 1.77693167 2.69150116
C -10.46514951 2.50676221 3.39449255
C -9.13372517 2.40770317 3.02917032
C -8.76592748 1.58057134 1.96358863
C -9.71242458 0.82572451 1.22411082
C -7.32372529 0.84448683 -1.09553629
C -5.95798609 0.79829175 -1.38900773
C -2.87282445 0.93011900 -0.86104414
C 0.90020312 0.33960277 1.33649357
H 2.56739533 -1.93719642 4.17246234
H 2.27297240 -3.10186795 2.82264385
H 1.13685888 -2.97610629 4.17165406
H 3.72416112 -1.34613403 2.20911571
H 5.70409373 0.42979666 2.61494511
H 8.12249419 0.37952543 2.15085408
H 8.17708932 -2.28365598 0.07309779
H 9.25931455 -4.45321819 -0.01481782
H 11.69901316 -4.62651747 -0.44469989
H 13.02482811 -2.58507239 -0.78236501
H 13.04221186 2.86133487 -1.08611079
H 11.72661331 4.93536781 -0.98619341
H 9.28419110 4.82550428 -0.54961604
H 8.18945604 2.68598637 -0.21960144
H 7.31887536 0.04425745 -2.06494884
H 4.89709445 0.07067386 -1.61248269
H 3.25912402 1.91382733 -0.53845889
H 1.73834569 4.15666112 0.02314701
H -1.86195735 3.74299136 -1.86164137
H 0.13032264 -0.30610462 -1.88312648
H -1.08703434 -4.40096351 -3.05706413
H -2.21454411 -4.05058267 -1.74153511
H -2.54570358 -3.47122925 -3.42096592
H -3.71514533 -2.22282081 -1.79116943
H -5.07193107 -1.81770630 0.60399502
H -7.48202028 -1.73931853 1.11682027
H -8.66344454 -1.61826618 -2.00149179
H -10.15857957 -2.94651540 -3.37515326
H -12.60051892 -2.96131121 -2.92619249
H -13.50865921 -1.61839748 -1.07743846
H -12.46208229 1.86313102 2.99064226
H -10.76351219 3.14576192 4.22093581
H -8.37415378 2.96909200 3.56697855
H -7.70622559 1.54110257 1.72376241
H -7.95567649 1.59151264 -1.56983437
H -5.54950380 1.51492872 -2.09926958
H -3.32048876 1.82777362 -0.43661578
H -0.16542971 0.35483293 1.55524973
