63

Co -0.075493 -0.157483 -0.078104
P 2.114740 0.027698 -0.119072
P -0.204605 1.981418 -0.635989
O -1.962315 -0.222971 0.202161
O 0.174250 -2.041606 0.129984
C -2.644176 -1.280227 0.507750
C -2.111748 -2.583718 0.590777
C -0.757176 -2.907634 0.374373
C -4.111254 -1.041107 0.758100
C -0.296598 -4.341780 0.422523
H -2.802119 -3.403286 0.829225
H -4.635235 -1.948512 1.107803
H -4.237074 -0.232751 1.506538
H -4.596035 -0.688322 -0.176597
H -1.113694 -5.041322 0.673628
H 0.131206 -4.627331 -0.560979
H 0.518703 -4.449863 1.166929
C 2.580786 1.831865 -0.196942
C 1.521061 2.626085 -0.972528
H 3.594617 1.967219 -0.627871
H 2.636855 2.175198 0.856867
H 1.582162 3.713451 -0.759883
H 1.678412 2.511553 -2.063949
C 2.921569 -0.674089 1.426215
C 4.299243 -0.078449 1.752194
C 1.964623 -0.556025 2.622948
H 3.030114 -1.752150 1.173291
H 5.014647 -0.133204 0.910760
H 4.746092 -0.631440 2.604020
H 4.220997 0.982166 2.066713
H 0.982056 -1.024846 2.416265
H 2.400506 -1.064976 3.507184
H 1.797730 0.502845 2.910289
C 2.835976 -0.887179 -1.586231
C 4.365844 -0.966216 -1.644514
C 2.236432 -0.357263 -2.897554
H 2.423163 -1.905779 -1.404418
H 4.799705 -1.492731 -0.773389
H 4.670391 -1.531375 -2.549698
H 4.834979 0.036989 -1.717593
H 1.129050 -0.295111 -2.856085
H 2.499566 -1.034548 -3.735266
H 2.632106 0.646583 -3.157384
C -0.985877 3.017512 0.716637
C -1.053744 4.523419 0.436151
C -0.322701 2.709761 2.067549
H -2.016818 2.600005 0.744252
H -1.532994 5.037998 1.294627
H -1.650155 4.765520 -0.463553
H -0.046413 4.972662 0.313946
H -0.321567 1.623404 2.289356
H -0.877815 3.214924 2.884250
H 0.723612 3.078067 2.112303
C -1.160553 2.257613 -2.238955
C -2.673923 2.130646 -2.008132
C -0.797351 3.526976 -3.024862
H -0.830211 1.378937 -2.839665
H -3.079707 3.015419 -1.476426
H -2.927907 1.227139 -1.421383
H -3.194594 2.071726 -2.985428
H 0.279083 3.595067 -3.275089
H -1.351045 3.523481 -3.986423
H -1.083471 4.451787 -2.487499
